Li24
1.0
24.240000 0.000000 0.000000  
0.000000 24.240000 0.000000  
0.000000 0.000000 24.240000  
Li    
24 
Selective dynamics
Cartesian
    3.030000    3.030000   11.109991
   11.109991    3.030000   11.109991
   19.190008    3.030000   11.109991
    7.070008    7.070008   11.109991
   15.150000    7.070008   11.109991
   23.229992    7.070008   11.109991
    5.049992    5.049992   13.130008
   13.130008    5.049992   13.130008
   21.209999    5.049992   13.130008
    9.090000    1.010008   13.130008
   17.169992    1.010008   13.130008
    1.010008    1.010008   13.130008
    7.070008    3.030000    7.070008
   15.150000    3.030000    7.070008
   23.229992    3.030000    7.070008
    3.030000    7.070008    7.070008
   11.109991    7.070008    7.070008
   19.190008    7.070008    7.070008
    9.090000    5.049992    9.090000
   17.169992    5.049992    9.090000
    1.010008    5.049992    9.090000
    5.049992    1.010008    9.090000
   13.130008    1.010008    9.090000
   21.209999    1.010008    9.090000
