Li
1.0
8.08 0.00 0.00
0.00 8.08 0.00
0.00 0.00 8.08
Li Al O 
8 16 32
Selective Dynamics
Direct
0.175000 0.175000 0.175000 (A Cation 8a) 
0.875000 0.875000 0.375000 (A Cation 8a) 
0.625000 0.625000 0.625000 (A Cation 8a) 
1.125000 1.125000 0.625000 (A Cation 8a) 
0.875000 0.375000 0.875000 (A Cation 8a) 
0.375000 0.875000 0.875000 (A Cation 8a) 
1.125000 0.625000 1.125000 (A Cation 8a) 
0.625000 1.125000 1.125000 (A Cation 8a)
0.500000 1.000000 0.500000 (B Cation 16d)
0.750000 1.250000 0.500000 (B Cation 16d)
1.000000 0.500000 0.500000 (B Cation 16d)
1.250000 0.750000 0.500000 (B Cation 16d)
0.500000 1.250000 0.750000 (B Cation 16d)
0.750000 1.000000 0.750000 (B Cation 16d)
1.000000 0.750000 0.750000 (B Cation 16d)
1.250000 0.500000 0.750000 (B Cation 16d)
0.500000 0.500000 1.000000 (B Cation 16d)
0.750000 0.750000 1.000000 (B Cation 16d)
1.000000 1.000000 1.000000 (B Cation 16d)
1.250000 1.250000 1.000000 (B Cation 16d)
0.500000 0.750000 1.250000 (B Cation 16d)
0.750000 0.500000 1.250000 (B Cation 16d)
1.000000 1.250000 1.250000 (B Cation 16d)
1.250000 1.000000 1.250000 (B Cation 16d)
0.500000 0.750000 0.500000 (X Anion 32e)
0.500000 1.250000 0.500000 (X Anion 32e)
0.750000 0.500000 0.500000 (X Anion 32e)
0.750000 1.000000 0.500000 (X Anion 32e)
1.000000 0.750000 0.500000 (X Anion 32e)
1.000000 1.250000 0.500000 (X Anion 32e)
1.250000 0.500000 0.500000 (X Anion 32e)
1.250000 1.000000 0.500000 (X Anion 32e)
0.500000 0.500000 0.750000 (X Anion 32e)
0.500000 1.000000 0.750000 (X Anion 32e)
0.750000 0.750000 0.750000 (X Anion 32e)
0.750000 1.250000 0.750000 (X Anion 32e)
1.000000 0.500000 0.750000 (X Anion 32e)
1.000000 1.000000 0.750000 (X Anion 32e)
1.250000 0.750000 0.750000 (X Anion 32e)
1.250000 1.250000 0.750000 (X Anion 32e)
0.500000 0.750000 1.000000 (X Anion 32e)
0.500000 1.250000 1.000000 (X Anion 32e)
0.750000 0.500000 1.000000 (X Anion 32e)
0.750000 1.000000 1.000000 (X Anion 32e)
1.000000 0.750000 1.000000 (X Anion 32e)
1.000000 1.250000 1.000000 (X Anion 32e)
1.250000 0.500000 1.000000 (X Anion 32e)
1.250000 1.000000 1.000000 (X Anion 32e)
0.500000 0.500000 1.250000 (X Anion 32e)
0.500000 1.000000 1.250000 (X Anion 32e)
0.750000 0.750000 1.250000 (X Anion 32e)
0.750000 1.250000 1.250000 (X Anion 32e)
1.000000 0.500000 1.250000 (X Anion 32e)
1.000000 1.000000 1.250000 (X Anion 32e)
1.250000 0.750000 1.250000 (X Anion 32e)
1.250000 1.250000 1.250000 (X Anion 32e)
