Li216 Al432 O864
1.0
24.240000 0.000000 0.000000
0.000000 24.240000 0.000000
0.000000 0.000000 24.240000
Li    
216 
Selective dynamics
direct
0.125000 0.125000 0.125000 F F F Li
0.125000 0.125000 0.458333 F F F Li
0.125000 0.125000 0.791667 F F F Li
0.125000 0.458333 0.125000 F F F Li
0.125000 0.458333 0.458333 F F F Li
0.125000 0.458333 0.791667 F F F Li
0.125000 0.791667 0.125000 F F F Li
0.125000 0.791667 0.458333 F F F Li
0.125000 0.791667 0.791667 F F F Li
0.458333 0.125000 0.125000 F F F Li
0.458333 0.125000 0.458333 F F F Li
0.458333 0.125000 0.791667 F F F Li
0.458333 0.458333 0.125000 F F F Li
0.458333 0.458333 0.458333 F F F Li
0.458333 0.458333 0.791667 F F F Li
0.458333 0.791667 0.125000 F F F Li
0.458333 0.791667 0.458333 F F F Li
0.458333 0.791667 0.791667 F F F Li
0.791667 0.125000 0.125000 F F F Li
0.791667 0.125000 0.458333 F F F Li
0.791667 0.125000 0.791667 F F F Li
0.791667 0.458333 0.125000 F F F Li
0.791667 0.458333 0.458333 F F F Li
0.791667 0.458333 0.791667 F F F Li
0.791667 0.791667 0.125000 F F F Li
0.791667 0.791667 0.458333 F F F Li
0.791667 0.791667 0.791667 F F F Li
0.291667 0.291667 0.125000 F F F Li
0.291667 0.291667 0.458333 F F F Li
0.291667 0.291667 0.791667 F F F Li
0.291667 0.625000 0.125000 F F F Li
0.291667 0.625000 0.458333 F F F Li
0.291667 0.625000 0.791667 F F F Li
0.291667 0.958333 0.125000 F F F Li
0.291667 0.958333 0.458333 F F F Li
0.291667 0.958333 0.791667 F F F Li
0.625000 0.291667 0.125000 F F F Li
0.625000 0.291667 0.458333 F F F Li
0.625000 0.291667 0.791667 F F F Li
0.625000 0.625000 0.125000 F F F Li
0.625000 0.625000 0.458333 F F F Li
0.625000 0.625000 0.791667 F F F Li
0.625000 0.958333 0.125000 F F F Li
0.625000 0.958333 0.458333 F F F Li
0.625000 0.958333 0.791667 F F F Li
0.958333 0.291667 0.125000 F F F Li
0.958333 0.291667 0.458333 F F F Li
0.958333 0.291667 0.791667 F F F Li
0.958333 0.625000 0.125000 F F F Li
0.958333 0.625000 0.458333 F F F Li
0.958333 0.625000 0.791667 F F F Li
0.958333 0.958333 0.125000 F F F Li
0.958333 0.958333 0.458333 F F F Li
0.958333 0.958333 0.791667 F F F Li
0.208333 0.208333 0.208333 F F F Li
0.208333 0.208333 0.541667 F F F Li
0.208333 0.208333 0.875000 F F F Li
0.208333 0.541667 0.208333 F F F Li
0.208333 0.541667 0.541667 F F F Li
0.208333 0.541667 0.875000 F F F Li
0.208333 0.875000 0.208333 F F F Li
0.208333 0.875000 0.541667 F F F Li
0.208333 0.875000 0.875000 F F F Li
0.541667 0.208333 0.208333 F F F Li
0.541667 0.208333 0.541667 F F F Li
0.541667 0.208333 0.875000 F F F Li
0.541667 0.541667 0.208333 F F F Li
0.541667 0.541667 0.541667 F F F Li
0.541667 0.541667 0.875000 F F F Li
0.541667 0.875000 0.208333 F F F Li
0.541667 0.875000 0.541667 F F F Li
0.541667 0.875000 0.875000 F F F Li
0.875000 0.208333 0.208333 F F F Li
0.875000 0.208333 0.541667 F F F Li
0.875000 0.208333 0.875000 F F F Li
0.875000 0.541667 0.208333 F F F Li
0.875000 0.541667 0.541667 F F F Li
0.875000 0.541667 0.875000 F F F Li
0.875000 0.875000 0.208333 F F F Li
0.875000 0.875000 0.541667 F F F Li
0.875000 0.875000 0.875000 F F F Li
0.375000 0.375000 0.208333 F F F Li
0.375000 0.375000 0.541667 F F F Li
0.375000 0.375000 0.875000 F F F Li
0.375000 0.708333 0.208333 F F F Li
0.375000 0.708333 0.541667 F F F Li
0.375000 0.708333 0.875000 F F F Li
0.375000 0.041667 0.208333 F F F Li
0.375000 0.041667 0.541667 F F F Li
0.375000 0.041667 0.875000 F F F Li
0.708333 0.375000 0.208333 F F F Li
0.708333 0.375000 0.541667 F F F Li
0.708333 0.375000 0.875000 F F F Li
0.708333 0.708333 0.208333 F F F Li
0.708333 0.708333 0.541667 F F F Li
0.708333 0.708333 0.875000 F F F Li
0.708333 0.041667 0.208333 F F F Li
0.708333 0.041667 0.541667 F F F Li
0.708333 0.041667 0.875000 F F F Li
0.041667 0.375000 0.208333 F F F Li
0.041667 0.375000 0.541667 F F F Li
0.041667 0.375000 0.875000 F F F Li
0.041667 0.708333 0.208333 F F F Li
0.041667 0.708333 0.541667 F F F Li
0.041667 0.708333 0.875000 F F F Li
0.041667 0.041667 0.208333 F F F Li
0.041667 0.041667 0.541667 F F F Li
0.041667 0.041667 0.875000 F F F Li
0.291667 0.125000 0.291667 F F F Li
0.291667 0.125000 0.625000 F F F Li
0.291667 0.125000 0.958333 F F F Li
0.291667 0.458333 0.291667 F F F Li
0.291667 0.458333 0.625000 F F F Li
0.291667 0.458333 0.958333 F F F Li
0.291667 0.791667 0.291667 F F F Li
0.291667 0.791667 0.625000 F F F Li
0.291667 0.791667 0.958333 F F F Li
0.625000 0.125000 0.291667 F F F Li
0.625000 0.125000 0.625000 F F F Li
0.625000 0.125000 0.958333 F F F Li
0.625000 0.458333 0.291667 F F F Li
0.625000 0.458333 0.625000 F F F Li
0.625000 0.458333 0.958333 F F F Li
0.625000 0.791667 0.291667 F F F Li
0.625000 0.791667 0.625000 F F F Li
0.625000 0.791667 0.958333 F F F Li
0.958333 0.125000 0.291667 F F F Li
0.958333 0.125000 0.625000 F F F Li
0.958333 0.125000 0.958333 F F F Li
0.958333 0.458333 0.291667 F F F Li
0.958333 0.458333 0.625000 F F F Li
0.958333 0.458333 0.958333 F F F Li
0.958333 0.791667 0.291667 F F F Li
0.958333 0.791667 0.625000 F F F Li
0.958333 0.791667 0.958333 F F F Li
0.125000 0.291667 0.291667 F F F Li
0.125000 0.291667 0.625000 F F F Li
0.125000 0.291667 0.958333 F F F Li
0.125000 0.625000 0.291667 F F F Li
0.125000 0.625000 0.625000 F F F Li
0.125000 0.625000 0.958333 F F F Li
0.125000 0.958333 0.291667 F F F Li
0.125000 0.958333 0.625000 F F F Li
0.125000 0.958333 0.958333 F F F Li
0.458333 0.291667 0.291667 F F F Li
0.458333 0.291667 0.625000 F F F Li
0.458333 0.291667 0.958333 F F F Li
0.458333 0.625000 0.291667 F F F Li
0.458333 0.625000 0.625000 F F F Li
0.458333 0.625000 0.958333 F F F Li
0.458333 0.958333 0.291667 F F F Li
0.458333 0.958333 0.625000 F F F Li
0.458333 0.958333 0.958333 F F F Li
0.791667 0.291667 0.291667 F F F Li
0.791667 0.291667 0.625000 F F F Li
0.791667 0.291667 0.958333 F F F Li
0.791667 0.625000 0.291667 F F F Li
0.791667 0.625000 0.625000 F F F Li
0.791667 0.625000 0.958333 F F F Li
0.791667 0.958333 0.291667 F F F Li
0.791667 0.958333 0.625000 F F F Li
0.791667 0.958333 0.958333 F F F Li
0.375000 0.208333 0.375000 F F F Li
0.375000 0.208333 0.708333 F F F Li
0.375000 0.208333 0.041667 F F F Li
0.375000 0.541667 0.375000 F F F Li
0.375000 0.541667 0.708333 F F F Li
0.375000 0.541667 0.041667 F F F Li
0.375000 0.875000 0.375000 F F F Li
0.375000 0.875000 0.708333 F F F Li
0.375000 0.875000 0.041667 F F F Li
0.708333 0.208333 0.375000 F F F Li
0.708333 0.208333 0.708333 F F F Li
0.708333 0.208333 0.041667 F F F Li
0.708333 0.541667 0.375000 F F F Li
0.708333 0.541667 0.708333 F F F Li
0.708333 0.541667 0.041667 F F F Li
0.708333 0.875000 0.375000 F F F Li
0.708333 0.875000 0.708333 F F F Li
0.708333 0.875000 0.041667 F F F Li
0.041667 0.208333 0.375000 F F F Li
0.041667 0.208333 0.708333 F F F Li
0.041667 0.208333 0.041667 F F F Li
0.041667 0.541667 0.375000 F F F Li
0.041667 0.541667 0.708333 F F F Li
0.041667 0.541667 0.041667 F F F Li
0.041667 0.875000 0.375000 F F F Li
0.041667 0.875000 0.708333 F F F Li
0.041667 0.875000 0.041667 F F F Li
0.208333 0.375000 0.375000 F F F Li
0.208333 0.375000 0.708333 F F F Li
0.208333 0.375000 0.041667 F F F Li
0.208333 0.708333 0.375000 F F F Li
0.208333 0.708333 0.708333 F F F Li
0.208333 0.708333 0.041667 F F F Li
0.208333 0.041667 0.375000 F F F Li
0.208333 0.041667 0.708333 F F F Li
0.208333 0.041667 0.041667 F F F Li
0.541667 0.375000 0.375000 F F F Li
0.541667 0.375000 0.708333 F F F Li
0.541667 0.375000 0.041667 F F F Li
0.541667 0.708333 0.375000 F F F Li
0.541667 0.708333 0.708333 F F F Li
0.541667 0.708333 0.041667 F F F Li
0.541667 0.041667 0.375000 F F F Li
0.541667 0.041667 0.708333 F F F Li
0.541667 0.041667 0.041667 F F F Li
0.875000 0.375000 0.375000 F F F Li
0.875000 0.375000 0.708333 F F F Li
0.875000 0.375000 0.041667 F F F Li
0.875000 0.708333 0.375000 F F F Li
0.875000 0.708333 0.708333 F F F Li
0.875000 0.708333 0.041667 F F F Li
0.875000 0.041667 0.375000 F F F Li
0.875000 0.041667 0.708333 F F F Li
0.875000 0.041667 0.041667 F F F Li
0.166667 0.333333 0.166667 F F F Al
0.166667 0.333333 0.500000 F F F Al
0.166667 0.333333 0.833333 F F F Al
0.166667 0.666667 0.166667 F F F Al
0.166667 0.666667 0.500000 F F F Al
0.166667 0.666667 0.833333 F F F Al
0.166667 0.000000 0.166667 F F F Al
0.166667 0.000000 0.500000 F F F Al
0.166667 0.000000 0.833333 F F F Al
0.500000 0.333333 0.166667 F F F Al
0.500000 0.333333 0.500000 F F F Al
0.500000 0.333333 0.833333 F F F Al
0.500000 0.666667 0.166667 F F F Al
0.500000 0.666667 0.500000 F F F Al
0.500000 0.666667 0.833333 F F F Al
0.500000 0.000000 0.166667 F F F Al
0.500000 0.000000 0.500000 F F F Al
0.500000 0.000000 0.833333 F F F Al
0.833333 0.333333 0.166667 F F F Al
0.833333 0.333333 0.500000 F F F Al
0.833333 0.333333 0.833333 F F F Al
0.833333 0.666667 0.166667 F F F Al
0.833333 0.666667 0.500000 F F F Al
0.833333 0.666667 0.833333 F F F Al
0.833333 0.000000 0.166667 F F F Al
0.833333 0.000000 0.500000 F F F Al
0.833333 0.000000 0.833333 F F F Al
0.250000 0.416667 0.166667 F F F Al
0.250000 0.416667 0.500000 F F F Al
0.250000 0.416667 0.833333 F F F Al
0.250000 0.750000 0.166667 F F F Al
0.250000 0.750000 0.500000 F F F Al
0.250000 0.750000 0.833333 F F F Al
0.250000 0.083333 0.166667 F F F Al
0.250000 0.083333 0.500000 F F F Al
0.250000 0.083333 0.833333 F F F Al
0.583333 0.416667 0.166667 F F F Al
0.583333 0.416667 0.500000 F F F Al
0.583333 0.416667 0.833333 F F F Al
0.583333 0.750000 0.166667 F F F Al
0.583333 0.750000 0.500000 F F F Al
0.583333 0.750000 0.833333 F F F Al
0.583333 0.083333 0.166667 F F F Al
0.583333 0.083333 0.500000 F F F Al
0.583333 0.083333 0.833333 F F F Al
0.916667 0.416667 0.166667 F F F Al
0.916667 0.416667 0.500000 F F F Al
0.916667 0.416667 0.833333 F F F Al
0.916667 0.750000 0.166667 F F F Al
0.916667 0.750000 0.500000 F F F Al
0.916667 0.750000 0.833333 F F F Al
0.916667 0.083333 0.166667 F F F Al
0.916667 0.083333 0.500000 F F F Al
0.916667 0.083333 0.833333 F F F Al
0.333333 0.166667 0.166667 F F F Al
0.333333 0.166667 0.500000 F F F Al
0.333333 0.166667 0.833333 F F F Al
0.333333 0.500000 0.166667 F F F Al
0.333333 0.500000 0.500000 F F F Al
0.333333 0.500000 0.833333 F F F Al
0.333333 0.833333 0.166667 F F F Al
0.333333 0.833333 0.500000 F F F Al
0.333333 0.833333 0.833333 F F F Al
0.666667 0.166667 0.166667 F F F Al
0.666667 0.166667 0.500000 F F F Al
0.666667 0.166667 0.833333 F F F Al
0.666667 0.500000 0.166667 F F F Al
0.666667 0.500000 0.500000 F F F Al
0.666667 0.500000 0.833333 F F F Al
0.666667 0.833333 0.166667 F F F Al
0.666667 0.833333 0.500000 F F F Al
0.666667 0.833333 0.833333 F F F Al
0.000000 0.166667 0.166667 F F F Al
0.000000 0.166667 0.500000 F F F Al
0.000000 0.166667 0.833333 F F F Al
0.000000 0.500000 0.166667 F F F Al
0.000000 0.500000 0.500000 F F F Al
0.000000 0.500000 0.833333 F F F Al
0.000000 0.833333 0.166667 F F F Al
0.000000 0.833333 0.500000 F F F Al
0.000000 0.833333 0.833333 F F F Al
0.416667 0.250000 0.166667 F F F Al
0.416667 0.250000 0.500000 F F F Al
0.416667 0.250000 0.833333 F F F Al
0.416667 0.583333 0.166667 F F F Al
0.416667 0.583333 0.500000 F F F Al
0.416667 0.583333 0.833333 F F F Al
0.416667 0.916667 0.166667 F F F Al
0.416667 0.916667 0.500000 F F F Al
0.416667 0.916667 0.833333 F F F Al
0.750000 0.250000 0.166667 F F F Al
0.750000 0.250000 0.500000 F F F Al
0.750000 0.250000 0.833333 F F F Al
0.750000 0.583333 0.166667 F F F Al
0.750000 0.583333 0.500000 F F F Al
0.750000 0.583333 0.833333 F F F Al
0.750000 0.916667 0.166667 F F F Al
0.750000 0.916667 0.500000 F F F Al
0.750000 0.916667 0.833333 F F F Al
0.083333 0.250000 0.166667 F F F Al
0.083333 0.250000 0.500000 F F F Al
0.083333 0.250000 0.833333 F F F Al
0.083333 0.583333 0.166667 F F F Al
0.083333 0.583333 0.500000 F F F Al
0.083333 0.583333 0.833333 F F F Al
0.083333 0.916667 0.166667 F F F Al
0.083333 0.916667 0.500000 F F F Al
0.083333 0.916667 0.833333 F F F Al
0.166667 0.416667 0.250000 F F F Al
0.166667 0.416667 0.583333 F F F Al
0.166667 0.416667 0.916667 F F F Al
0.166667 0.750000 0.250000 F F F Al
0.166667 0.750000 0.583333 F F F Al
0.166667 0.750000 0.916667 F F F Al
0.166667 0.083333 0.250000 F F F Al
0.166667 0.083333 0.583333 F F F Al
0.166667 0.083333 0.916667 F F F Al
0.500000 0.416667 0.250000 F F F Al
0.500000 0.416667 0.583333 F F F Al
0.500000 0.416667 0.916667 F F F Al
0.500000 0.750000 0.250000 F F F Al
0.500000 0.750000 0.583333 F F F Al
0.500000 0.750000 0.916667 F F F Al
0.500000 0.083333 0.250000 F F F Al
0.500000 0.083333 0.583333 F F F Al
0.500000 0.083333 0.916667 F F F Al
0.833333 0.416667 0.250000 F F F Al
0.833333 0.416667 0.583333 F F F Al
0.833333 0.416667 0.916667 F F F Al
0.833333 0.750000 0.250000 F F F Al
0.833333 0.750000 0.583333 F F F Al
0.833333 0.750000 0.916667 F F F Al
0.833333 0.083333 0.250000 F F F Al
0.833333 0.083333 0.583333 F F F Al
0.833333 0.083333 0.916667 F F F Al
0.250000 0.333333 0.250000 F F F Al
0.250000 0.333333 0.583333 F F F Al
0.250000 0.333333 0.916667 F F F Al
0.250000 0.666667 0.250000 F F F Al
0.250000 0.666667 0.583333 F F F Al
0.250000 0.666667 0.916667 F F F Al
0.250000 0.000000 0.250000 F F F Al
0.250000 0.000000 0.583333 F F F Al
0.250000 0.000000 0.916667 F F F Al
0.583333 0.333333 0.250000 F F F Al
0.583333 0.333333 0.583333 F F F Al
0.583333 0.333333 0.916667 F F F Al
0.583333 0.666667 0.250000 F F F Al
0.583333 0.666667 0.583333 F F F Al
0.583333 0.666667 0.916667 F F F Al
0.583333 0.000000 0.250000 F F F Al
0.583333 0.000000 0.583333 F F F Al
0.583333 0.000000 0.916667 F F F Al
0.916667 0.333333 0.250000 F F F Al
0.916667 0.333333 0.583333 F F F Al
0.916667 0.333333 0.916667 F F F Al
0.916667 0.666667 0.250000 F F F Al
0.916667 0.666667 0.583333 F F F Al
0.916667 0.666667 0.916667 F F F Al
0.916667 0.000000 0.250000 F F F Al
0.916667 0.000000 0.583333 F F F Al
0.916667 0.000000 0.916667 F F F Al
0.333333 0.250000 0.250000 F F F Al
0.333333 0.250000 0.583333 F F F Al
0.333333 0.250000 0.916667 F F F Al
0.333333 0.583333 0.250000 F F F Al
0.333333 0.583333 0.583333 F F F Al
0.333333 0.583333 0.916667 F F F Al
0.333333 0.916667 0.250000 F F F Al
0.333333 0.916667 0.583333 F F F Al
0.333333 0.916667 0.916667 F F F Al
0.666667 0.250000 0.250000 F F F Al
0.666667 0.250000 0.583333 F F F Al
0.666667 0.250000 0.916667 F F F Al
0.666667 0.583333 0.250000 F F F Al
0.666667 0.583333 0.583333 F F F Al
0.666667 0.583333 0.916667 F F F Al
0.666667 0.916667 0.250000 F F F Al
0.666667 0.916667 0.583333 F F F Al
0.666667 0.916667 0.916667 F F F Al
0.000000 0.250000 0.250000 F F F Al
0.000000 0.250000 0.583333 F F F Al
0.000000 0.250000 0.916667 F F F Al
0.000000 0.583333 0.250000 F F F Al
0.000000 0.583333 0.583333 F F F Al
0.000000 0.583333 0.916667 F F F Al
0.000000 0.916667 0.250000 F F F Al
0.000000 0.916667 0.583333 F F F Al
0.000000 0.916667 0.916667 F F F Al
0.416667 0.166667 0.250000 F F F Al
0.416667 0.166667 0.583333 F F F Al
0.416667 0.166667 0.916667 F F F Al
0.416667 0.500000 0.250000 F F F Al
0.416667 0.500000 0.583333 F F F Al
0.416667 0.500000 0.916667 F F F Al
0.416667 0.833333 0.250000 F F F Al
0.416667 0.833333 0.583333 F F F Al
0.416667 0.833333 0.916667 F F F Al
0.750000 0.166667 0.250000 F F F Al
0.750000 0.166667 0.583333 F F F Al
0.750000 0.166667 0.916667 F F F Al
0.750000 0.500000 0.250000 F F F Al
0.750000 0.500000 0.583333 F F F Al
0.750000 0.500000 0.916667 F F F Al
0.750000 0.833333 0.250000 F F F Al
0.750000 0.833333 0.583333 F F F Al
0.750000 0.833333 0.916667 F F F Al
0.083333 0.166667 0.250000 F F F Al
0.083333 0.166667 0.583333 F F F Al
0.083333 0.166667 0.916667 F F F Al
0.083333 0.500000 0.250000 F F F Al
0.083333 0.500000 0.583333 F F F Al
0.083333 0.500000 0.916667 F F F Al
0.083333 0.833333 0.250000 F F F Al
0.083333 0.833333 0.583333 F F F Al
0.083333 0.833333 0.916667 F F F Al
0.166667 0.166667 0.333333 F F F Al
0.166667 0.166667 0.666667 F F F Al
0.166667 0.166667 0.000000 F F F Al
0.166667 0.500000 0.333333 F F F Al
0.166667 0.500000 0.666667 F F F Al
0.166667 0.500000 0.000000 F F F Al
0.166667 0.833333 0.333333 F F F Al
0.166667 0.833333 0.666667 F F F Al
0.166667 0.833333 0.000000 F F F Al
0.500000 0.166667 0.333333 F F F Al
0.500000 0.166667 0.666667 F F F Al
0.500000 0.166667 0.000000 F F F Al
0.500000 0.500000 0.333333 F F F Al
0.500000 0.500000 0.666667 F F F Al
0.500000 0.500000 0.000000 F F F Al
0.500000 0.833333 0.333333 F F F Al
0.500000 0.833333 0.666667 F F F Al
0.500000 0.833333 0.000000 F F F Al
0.833333 0.166667 0.333333 F F F Al
0.833333 0.166667 0.666667 F F F Al
0.833333 0.166667 0.000000 F F F Al
0.833333 0.500000 0.333333 F F F Al
0.833333 0.500000 0.666667 F F F Al
0.833333 0.500000 0.000000 F F F Al
0.833333 0.833333 0.333333 F F F Al
0.833333 0.833333 0.666667 F F F Al
0.833333 0.833333 0.000000 F F F Al
0.250000 0.250000 0.333333 F F F Al
0.250000 0.250000 0.666667 F F F Al
0.250000 0.250000 0.000000 F F F Al
0.250000 0.583333 0.333333 F F F Al
0.250000 0.583333 0.666667 F F F Al
0.250000 0.583333 0.000000 F F F Al
0.250000 0.916667 0.333333 F F F Al
0.250000 0.916667 0.666667 F F F Al
0.250000 0.916667 0.000000 F F F Al
0.583333 0.250000 0.333333 F F F Al
0.583333 0.250000 0.666667 F F F Al
0.583333 0.250000 0.000000 F F F Al
0.583333 0.583333 0.333333 F F F Al
0.583333 0.583333 0.666667 F F F Al
0.583333 0.583333 0.000000 F F F Al
0.583333 0.916667 0.333333 F F F Al
0.583333 0.916667 0.666667 F F F Al
0.583333 0.916667 0.000000 F F F Al
0.916667 0.250000 0.333333 F F F Al
0.916667 0.250000 0.666667 F F F Al
0.916667 0.250000 0.000000 F F F Al
0.916667 0.583333 0.333333 F F F Al
0.916667 0.583333 0.666667 F F F Al
0.916667 0.583333 0.000000 F F F Al
0.916667 0.916667 0.333333 F F F Al
0.916667 0.916667 0.666667 F F F Al
0.916667 0.916667 0.000000 F F F Al
0.333333 0.333333 0.333333 F F F Al
0.333333 0.333333 0.666667 F F F Al
0.333333 0.333333 0.000000 F F F Al
0.333333 0.666667 0.333333 F F F Al
0.333333 0.666667 0.666667 F F F Al
0.333333 0.666667 0.000000 F F F Al
0.333333 0.000000 0.333333 F F F Al
0.333333 0.000000 0.666667 F F F Al
0.333333 0.000000 0.000000 F F F Al
0.666667 0.333333 0.333333 F F F Al
0.666667 0.333333 0.666667 F F F Al
0.666667 0.333333 0.000000 F F F Al
0.666667 0.666667 0.333333 F F F Al
0.666667 0.666667 0.666667 F F F Al
0.666667 0.666667 0.000000 F F F Al
0.666667 0.000000 0.333333 F F F Al
0.666667 0.000000 0.666667 F F F Al
0.666667 0.000000 0.000000 F F F Al
0.000000 0.333333 0.333333 F F F Al
0.000000 0.333333 0.666667 F F F Al
0.000000 0.333333 0.000000 F F F Al
0.000000 0.666667 0.333333 F F F Al
0.000000 0.666667 0.666667 F F F Al
0.000000 0.666667 0.000000 F F F Al
0.000000 0.000000 0.333333 F F F Al
0.000000 0.000000 0.666667 F F F Al
0.000000 0.000000 0.000000 F F F Al
0.416667 0.416667 0.333333 F F F Al
0.416667 0.416667 0.666667 F F F Al
0.416667 0.416667 0.000000 F F F Al
0.416667 0.750000 0.333333 F F F Al
0.416667 0.750000 0.666667 F F F Al
0.416667 0.750000 0.000000 F F F Al
0.416667 0.083333 0.333333 F F F Al
0.416667 0.083333 0.666667 F F F Al
0.416667 0.083333 0.000000 F F F Al
0.750000 0.416667 0.333333 F F F Al
0.750000 0.416667 0.666667 F F F Al
0.750000 0.416667 0.000000 F F F Al
0.750000 0.750000 0.333333 F F F Al
0.750000 0.750000 0.666667 F F F Al
0.750000 0.750000 0.000000 F F F Al
0.750000 0.083333 0.333333 F F F Al
0.750000 0.083333 0.666667 F F F Al
0.750000 0.083333 0.000000 F F F Al
0.083333 0.416667 0.333333 F F F Al
0.083333 0.416667 0.666667 F F F Al
0.083333 0.416667 0.000000 F F F Al
0.083333 0.750000 0.333333 F F F Al
0.083333 0.750000 0.666667 F F F Al
0.083333 0.750000 0.000000 F F F Al
0.083333 0.083333 0.333333 F F F Al
0.083333 0.083333 0.666667 F F F Al
0.083333 0.083333 0.000000 F F F Al
0.166667 0.250000 0.416667 F F F Al
0.166667 0.250000 0.750000 F F F Al
0.166667 0.250000 0.083333 F F F Al
0.166667 0.583333 0.416667 F F F Al
0.166667 0.583333 0.750000 F F F Al
0.166667 0.583333 0.083333 F F F Al
0.166667 0.916667 0.416667 F F F Al
0.166667 0.916667 0.750000 F F F Al
0.166667 0.916667 0.083333 F F F Al
0.500000 0.250000 0.416667 F F F Al
0.500000 0.250000 0.750000 F F F Al
0.500000 0.250000 0.083333 F F F Al
0.500000 0.583333 0.416667 F F F Al
0.500000 0.583333 0.750000 F F F Al
0.500000 0.583333 0.083333 F F F Al
0.500000 0.916667 0.416667 F F F Al
0.500000 0.916667 0.750000 F F F Al
0.500000 0.916667 0.083333 F F F Al
0.833333 0.250000 0.416667 F F F Al
0.833333 0.250000 0.750000 F F F Al
0.833333 0.250000 0.083333 F F F Al
0.833333 0.583333 0.416667 F F F Al
0.833333 0.583333 0.750000 F F F Al
0.833333 0.583333 0.083333 F F F Al
0.833333 0.916667 0.416667 F F F Al
0.833333 0.916667 0.750000 F F F Al
0.833333 0.916667 0.083333 F F F Al
0.250000 0.166667 0.416667 F F F Al
0.250000 0.166667 0.750000 F F F Al
0.250000 0.166667 0.083333 F F F Al
0.250000 0.500000 0.416667 F F F Al
0.250000 0.500000 0.750000 F F F Al
0.250000 0.500000 0.083333 F F F Al
0.250000 0.833333 0.416667 F F F Al
0.250000 0.833333 0.750000 F F F Al
0.250000 0.833333 0.083333 F F F Al
0.583333 0.166667 0.416667 F F F Al
0.583333 0.166667 0.750000 F F F Al
0.583333 0.166667 0.083333 F F F Al
0.583333 0.500000 0.416667 F F F Al
0.583333 0.500000 0.750000 F F F Al
0.583333 0.500000 0.083333 F F F Al
0.583333 0.833333 0.416667 F F F Al
0.583333 0.833333 0.750000 F F F Al
0.583333 0.833333 0.083333 F F F Al
0.916667 0.166667 0.416667 F F F Al
0.916667 0.166667 0.750000 F F F Al
0.916667 0.166667 0.083333 F F F Al
0.916667 0.500000 0.416667 F F F Al
0.916667 0.500000 0.750000 F F F Al
0.916667 0.500000 0.083333 F F F Al
0.916667 0.833333 0.416667 F F F Al
0.916667 0.833333 0.750000 F F F Al
0.916667 0.833333 0.083333 F F F Al
0.333333 0.416667 0.416667 F F F Al
0.333333 0.416667 0.750000 F F F Al
0.333333 0.416667 0.083333 F F F Al
0.333333 0.750000 0.416667 F F F Al
0.333333 0.750000 0.750000 F F F Al
0.333333 0.750000 0.083333 F F F Al
0.333333 0.083333 0.416667 F F F Al
0.333333 0.083333 0.750000 F F F Al
0.333333 0.083333 0.083333 F F F Al
0.666667 0.416667 0.416667 F F F Al
0.666667 0.416667 0.750000 F F F Al
0.666667 0.416667 0.083333 F F F Al
0.666667 0.750000 0.416667 F F F Al
0.666667 0.750000 0.750000 F F F Al
0.666667 0.750000 0.083333 F F F Al
0.666667 0.083333 0.416667 F F F Al
0.666667 0.083333 0.750000 F F F Al
0.666667 0.083333 0.083333 F F F Al
0.000000 0.416667 0.416667 F F F Al
0.000000 0.416667 0.750000 F F F Al
0.000000 0.416667 0.083333 F F F Al
0.000000 0.750000 0.416667 F F F Al
0.000000 0.750000 0.750000 F F F Al
0.000000 0.750000 0.083333 F F F Al
0.000000 0.083333 0.416667 F F F Al
0.000000 0.083333 0.750000 F F F Al
0.000000 0.083333 0.083333 F F F Al
0.416667 0.333333 0.416667 F F F Al
0.416667 0.333333 0.750000 F F F Al
0.416667 0.333333 0.083333 F F F Al
0.416667 0.666667 0.416667 F F F Al
0.416667 0.666667 0.750000 F F F Al
0.416667 0.666667 0.083333 F F F Al
0.416667 0.000000 0.416667 F F F Al
0.416667 0.000000 0.750000 F F F Al
0.416667 0.000000 0.083333 F F F Al
0.750000 0.333333 0.416667 F F F Al
0.750000 0.333333 0.750000 F F F Al
0.750000 0.333333 0.083333 F F F Al
0.750000 0.666667 0.416667 F F F Al
0.750000 0.666667 0.750000 F F F Al
0.750000 0.666667 0.083333 F F F Al
0.750000 0.000000 0.416667 F F F Al
0.750000 0.000000 0.750000 F F F Al
0.750000 0.000000 0.083333 F F F Al
0.083333 0.333333 0.416667 F F F Al
0.083333 0.333333 0.750000 F F F Al
0.083333 0.333333 0.083333 F F F Al
0.083333 0.666667 0.416667 F F F Al
0.083333 0.666667 0.750000 F F F Al
0.083333 0.666667 0.083333 F F F Al
0.083333 0.000000 0.416667 F F F Al
0.083333 0.000000 0.750000 F F F Al
0.083333 0.000000 0.083333 F F F Al
0.166667 0.250000 0.166667 F F F O
0.166667 0.250000 0.500000 F F F O
0.166667 0.250000 0.833333 F F F O
0.166667 0.583333 0.166667 F F F O
0.166667 0.583333 0.500000 F F F O
0.166667 0.583333 0.833333 F F F O
0.166667 0.916667 0.166667 F F F O
0.166667 0.916667 0.500000 F F F O
0.166667 0.916667 0.833333 F F F O
0.500000 0.250000 0.166667 F F F O
0.500000 0.250000 0.500000 F F F O
0.500000 0.250000 0.833333 F F F O
0.500000 0.583333 0.166667 F F F O
0.500000 0.583333 0.500000 F F F O
0.500000 0.583333 0.833333 F F F O
0.500000 0.916667 0.166667 F F F O
0.500000 0.916667 0.500000 F F F O
0.500000 0.916667 0.833333 F F F O
0.833333 0.250000 0.166667 F F F O
0.833333 0.250000 0.500000 F F F O
0.833333 0.250000 0.833333 F F F O
0.833333 0.583333 0.166667 F F F O
0.833333 0.583333 0.500000 F F F O
0.833333 0.583333 0.833333 F F F O
0.833333 0.916667 0.166667 F F F O
0.833333 0.916667 0.500000 F F F O
0.833333 0.916667 0.833333 F F F O
0.166667 0.416667 0.166667 F F F O
0.166667 0.416667 0.500000 F F F O
0.166667 0.416667 0.833333 F F F O
0.166667 0.750000 0.166667 F F F O
0.166667 0.750000 0.500000 F F F O
0.166667 0.750000 0.833333 F F F O
0.166667 0.083333 0.166667 F F F O
0.166667 0.083333 0.500000 F F F O
0.166667 0.083333 0.833333 F F F O
0.500000 0.416667 0.166667 F F F O
0.500000 0.416667 0.500000 F F F O
0.500000 0.416667 0.833333 F F F O
0.500000 0.750000 0.166667 F F F O
0.500000 0.750000 0.500000 F F F O
0.500000 0.750000 0.833333 F F F O
0.500000 0.083333 0.166667 F F F O
0.500000 0.083333 0.500000 F F F O
0.500000 0.083333 0.833333 F F F O
0.833333 0.416667 0.166667 F F F O
0.833333 0.416667 0.500000 F F F O
0.833333 0.416667 0.833333 F F F O
0.833333 0.750000 0.166667 F F F O
0.833333 0.750000 0.500000 F F F O
0.833333 0.750000 0.833333 F F F O
0.833333 0.083333 0.166667 F F F O
0.833333 0.083333 0.500000 F F F O
0.833333 0.083333 0.833333 F F F O
0.250000 0.166667 0.166667 F F F O
0.250000 0.166667 0.500000 F F F O
0.250000 0.166667 0.833333 F F F O
0.250000 0.500000 0.166667 F F F O
0.250000 0.500000 0.500000 F F F O
0.250000 0.500000 0.833333 F F F O
0.250000 0.833333 0.166667 F F F O
0.250000 0.833333 0.500000 F F F O
0.250000 0.833333 0.833333 F F F O
0.583333 0.166667 0.166667 F F F O
0.583333 0.166667 0.500000 F F F O
0.583333 0.166667 0.833333 F F F O
0.583333 0.500000 0.166667 F F F O
0.583333 0.500000 0.500000 F F F O
0.583333 0.500000 0.833333 F F F O
0.583333 0.833333 0.166667 F F F O
0.583333 0.833333 0.500000 F F F O
0.583333 0.833333 0.833333 F F F O
0.916667 0.166667 0.166667 F F F O
0.916667 0.166667 0.500000 F F F O
0.916667 0.166667 0.833333 F F F O
0.916667 0.500000 0.166667 F F F O
0.916667 0.500000 0.500000 F F F O
0.916667 0.500000 0.833333 F F F O
0.916667 0.833333 0.166667 F F F O
0.916667 0.833333 0.500000 F F F O
0.916667 0.833333 0.833333 F F F O
0.250000 0.333333 0.166667 F F F O
0.250000 0.333333 0.500000 F F F O
0.250000 0.333333 0.833333 F F F O
0.250000 0.666667 0.166667 F F F O
0.250000 0.666667 0.500000 F F F O
0.250000 0.666667 0.833333 F F F O
0.250000 0.000000 0.166667 F F F O
0.250000 0.000000 0.500000 F F F O
0.250000 0.000000 0.833333 F F F O
0.583333 0.333333 0.166667 F F F O
0.583333 0.333333 0.500000 F F F O
0.583333 0.333333 0.833333 F F F O
0.583333 0.666667 0.166667 F F F O
0.583333 0.666667 0.500000 F F F O
0.583333 0.666667 0.833333 F F F O
0.583333 0.000000 0.166667 F F F O
0.583333 0.000000 0.500000 F F F O
0.583333 0.000000 0.833333 F F F O
0.916667 0.333333 0.166667 F F F O
0.916667 0.333333 0.500000 F F F O
0.916667 0.333333 0.833333 F F F O
0.916667 0.666667 0.166667 F F F O
0.916667 0.666667 0.500000 F F F O
0.916667 0.666667 0.833333 F F F O
0.916667 0.000000 0.166667 F F F O
0.916667 0.000000 0.500000 F F F O
0.916667 0.000000 0.833333 F F F O
0.333333 0.250000 0.166667 F F F O
0.333333 0.250000 0.500000 F F F O
0.333333 0.250000 0.833333 F F F O
0.333333 0.583333 0.166667 F F F O
0.333333 0.583333 0.500000 F F F O
0.333333 0.583333 0.833333 F F F O
0.333333 0.916667 0.166667 F F F O
0.333333 0.916667 0.500000 F F F O
0.333333 0.916667 0.833333 F F F O
0.666667 0.250000 0.166667 F F F O
0.666667 0.250000 0.500000 F F F O
0.666667 0.250000 0.833333 F F F O
0.666667 0.583333 0.166667 F F F O
0.666667 0.583333 0.500000 F F F O
0.666667 0.583333 0.833333 F F F O
0.666667 0.916667 0.166667 F F F O
0.666667 0.916667 0.500000 F F F O
0.666667 0.916667 0.833333 F F F O
0.000000 0.250000 0.166667 F F F O
0.000000 0.250000 0.500000 F F F O
0.000000 0.250000 0.833333 F F F O
0.000000 0.583333 0.166667 F F F O
0.000000 0.583333 0.500000 F F F O
0.000000 0.583333 0.833333 F F F O
0.000000 0.916667 0.166667 F F F O
0.000000 0.916667 0.500000 F F F O
0.000000 0.916667 0.833333 F F F O
0.333333 0.416667 0.166667 F F F O
0.333333 0.416667 0.500000 F F F O
0.333333 0.416667 0.833333 F F F O
0.333333 0.750000 0.166667 F F F O
0.333333 0.750000 0.500000 F F F O
0.333333 0.750000 0.833333 F F F O
0.333333 0.083333 0.166667 F F F O
0.333333 0.083333 0.500000 F F F O
0.333333 0.083333 0.833333 F F F O
0.666667 0.416667 0.166667 F F F O
0.666667 0.416667 0.500000 F F F O
0.666667 0.416667 0.833333 F F F O
0.666667 0.750000 0.166667 F F F O
0.666667 0.750000 0.500000 F F F O
0.666667 0.750000 0.833333 F F F O
0.666667 0.083333 0.166667 F F F O
0.666667 0.083333 0.500000 F F F O
0.666667 0.083333 0.833333 F F F O
0.000000 0.416667 0.166667 F F F O
0.000000 0.416667 0.500000 F F F O
0.000000 0.416667 0.833333 F F F O
0.000000 0.750000 0.166667 F F F O
0.000000 0.750000 0.500000 F F F O
0.000000 0.750000 0.833333 F F F O
0.000000 0.083333 0.166667 F F F O
0.000000 0.083333 0.500000 F F F O
0.000000 0.083333 0.833333 F F F O
0.416667 0.166667 0.166667 F F F O
0.416667 0.166667 0.500000 F F F O
0.416667 0.166667 0.833333 F F F O
0.416667 0.500000 0.166667 F F F O
0.416667 0.500000 0.500000 F F F O
0.416667 0.500000 0.833333 F F F O
0.416667 0.833333 0.166667 F F F O
0.416667 0.833333 0.500000 F F F O
0.416667 0.833333 0.833333 F F F O
0.750000 0.166667 0.166667 F F F O
0.750000 0.166667 0.500000 F F F O
0.750000 0.166667 0.833333 F F F O
0.750000 0.500000 0.166667 F F F O
0.750000 0.500000 0.500000 F F F O
0.750000 0.500000 0.833333 F F F O
0.750000 0.833333 0.166667 F F F O
0.750000 0.833333 0.500000 F F F O
0.750000 0.833333 0.833333 F F F O
0.083333 0.166667 0.166667 F F F O
0.083333 0.166667 0.500000 F F F O
0.083333 0.166667 0.833333 F F F O
0.083333 0.500000 0.166667 F F F O
0.083333 0.500000 0.500000 F F F O
0.083333 0.500000 0.833333 F F F O