Li72
1.0
24.240000 0.000000 0.000000   
0.000000 24.240000 0.000000  
0.000000 0.000000 24.240000  
Li    
72
Selective dynamics
Cartesian
    3.030000    3.030000    3.030000
    3.030000    3.030000   11.109991
    3.030000    3.030000   19.190008
   11.109991    3.030000    3.030000
   11.109991    3.030000   11.109991
   11.109991    3.030000   19.190008
   19.190008    3.030000    3.030000
   19.190008    3.030000   11.109991
   19.190008    3.030000   19.190008
    7.070008    7.070008    3.030000
    7.070008    7.070008   11.109991
    7.070008    7.070008   19.190008
   15.150000    7.070008    3.030000
   15.150000    7.070008   11.109991
   15.150000    7.070008   19.190008
   23.229992    7.070008    3.030000
   23.229992    7.070008   11.109991
   23.229992    7.070008   19.190008
    5.049992    5.049992    5.049992
    5.049992    5.049992   13.130008
    5.049992    5.049992   21.209999
   13.130008    5.049992    5.049992
   13.130008    5.049992   13.130008
   13.130008    5.049992   21.209999
   21.209999    5.049992    5.049992
   21.209999    5.049992   13.130008
   21.209999    5.049992   21.209999
    9.090000    1.010008    5.049992
    9.090000    1.010008   13.130008
    9.090000    1.010008   21.209999
   17.169992    1.010008    5.049992
   17.169992    1.010008   13.130008
   17.169992    1.010008   21.209999
    1.010008    1.010008    5.049992
    1.010008    1.010008   13.130008
    1.010008    1.010008   21.209999
    7.070008    3.030000    7.070008
    7.070008    3.030000   15.150000
    7.070008    3.030000   23.229992
   15.150000    3.030000    7.070008
   15.150000    3.030000   15.150000
   15.150000    3.030000   23.229992
   23.229992    3.030000    7.070008
   23.229992    3.030000   15.150000
   23.229992    3.030000   23.229992
    3.030000    7.070008    7.070008
    3.030000    7.070008   15.150000
    3.030000    7.070008   23.229992
   11.109991    7.070008    7.070008
   11.109991    7.070008   15.150000
   11.109991    7.070008   23.229992
   19.190008    7.070008    7.070008
   19.190008    7.070008   15.150000
   19.190008    7.070008   23.229992
    9.090000    5.049992    9.090000
    9.090000    5.049992   17.169992
    9.090000    5.049992    1.010008
   17.169992    5.049992    9.090000
   17.169992    5.049992   17.169992
   17.169992    5.049992    1.010008
    1.010008    5.049992    9.090000
    1.010008    5.049992   17.169992
    1.010008    5.049992    1.010008
    5.049992    1.010008    9.090000
    5.049992    1.010008   17.169992
    5.049992    1.010008    1.010008
   13.130008    1.010008    9.090000
   13.130008    1.010008   17.169992
   13.130008    1.010008    1.010008
   21.209999    1.010008    9.090000
   21.209999    1.010008   17.169992
   21.209999    1.010008    1.010008
