Li8781
1.0
113.120000 0.000000 0.000000
0.000000 113.120000 0.000000
0.000000 0.000000 113.120000
Li
8781
direct
0.026786 0.026786 0.026786 Li
0.026786 0.026786 0.169643 Li
0.026786 0.026786 0.312500 Li
0.026786 0.026786 0.383929 Li
0.026786 0.026786 0.455357 Li
0.026786 0.026786 0.598214 Li
0.026786 0.098214 0.026786 Li
0.026786 0.098214 0.098214 Li
0.026786 0.098214 0.169643 Li
0.026786 0.098214 0.241071 Li
0.026786 0.098214 0.598214 Li
0.026786 0.098214 0.883929 Li
0.026786 0.098214 0.955357 Li
0.026786 0.169643 0.026786 Li
0.026786 0.169643 0.169643 Li
0.026786 0.169643 0.455357 Li
0.026786 0.241071 0.098214 Li
0.026786 0.241071 0.241071 Li
0.026786 0.241071 0.312500 Li
0.026786 0.241071 0.669643 Li
0.026786 0.241071 0.741071 Li
0.026786 0.312500 0.026786 Li
0.026786 0.312500 0.383929 Li
0.026786 0.312500 0.455357 Li
0.026786 0.312500 0.812500 Li
0.026786 0.312500 0.955357 Li
0.026786 0.383929 0.169643 Li
0.026786 0.383929 0.241071 Li
0.026786 0.383929 0.383929 Li
0.026786 0.383929 0.455357 Li
0.026786 0.383929 0.598214 Li
0.026786 0.383929 0.669643 Li
0.026786 0.383929 0.955357 Li
0.026786 0.455357 0.026786 Li
0.026786 0.455357 0.169643 Li
0.026786 0.455357 0.383929 Li
0.026786 0.455357 0.455357 Li
0.026786 0.455357 0.526786 Li
0.026786 0.455357 0.598214 Li
0.026786 0.455357 0.669643 Li
0.026786 0.526786 0.026786 Li
0.026786 0.526786 0.098214 Li
0.026786 0.526786 0.598214 Li
0.026786 0.526786 0.669643 Li
0.026786 0.526786 0.741071 Li
0.026786 0.598214 0.312500 Li
0.026786 0.598214 0.883929 Li
0.026786 0.669643 0.026786 Li
0.026786 0.669643 0.098214 Li
0.026786 0.669643 0.741071 Li
0.026786 0.669643 0.812500 Li
0.026786 0.741071 0.383929 Li
0.026786 0.741071 0.455357 Li
0.026786 0.741071 0.598214 Li
0.026786 0.741071 0.741071 Li
0.026786 0.741071 0.812500 Li
0.026786 0.741071 0.955357 Li
0.026786 0.812500 0.026786 Li
0.026786 0.812500 0.098214 Li
0.026786 0.812500 0.883929 Li
0.026786 0.883929 0.241071 Li
0.026786 0.883929 0.526786 Li
0.026786 0.883929 0.812500 Li
0.026786 0.883929 0.883929 Li
0.026786 0.955357 0.026786 Li
0.026786 0.955357 0.098214 Li
0.026786 0.955357 0.455357 Li
0.026786 0.955357 0.526786 Li
0.026786 0.955357 0.883929 Li
0.026786 0.955357 0.955357 Li
0.098214 0.026786 0.098214 Li
0.098214 0.026786 0.241071 Li
0.098214 0.026786 0.455357 Li
0.098214 0.026786 0.526786 Li
0.098214 0.026786 0.812500 Li
0.098214 0.026786 0.883929 Li
0.098214 0.098214 0.169643 Li
0.098214 0.098214 0.383929 Li
0.098214 0.098214 0.455357 Li
0.098214 0.098214 0.741071 Li
0.098214 0.098214 0.883929 Li
0.098214 0.098214 0.955357 Li
0.098214 0.169643 0.026786 Li
0.098214 0.169643 0.098214 Li
0.098214 0.169643 0.169643 Li
0.098214 0.169643 0.455357 Li
0.098214 0.169643 0.741071 Li
0.098214 0.169643 0.883929 Li
0.098214 0.169643 0.955357 Li
0.098214 0.241071 0.026786 Li
0.098214 0.241071 0.098214 Li
0.098214 0.241071 0.241071 Li
0.098214 0.241071 0.312500 Li
0.098214 0.241071 0.455357 Li
0.098214 0.241071 0.526786 Li
0.098214 0.241071 0.598214 Li
0.098214 0.241071 0.741071 Li
0.098214 0.241071 0.812500 Li
0.098214 0.241071 0.955357 Li
0.098214 0.312500 0.026786 Li
0.098214 0.312500 0.526786 Li
0.098214 0.312500 0.598214 Li
0.098214 0.312500 0.741071 Li
0.098214 0.312500 0.812500 Li
0.098214 0.312500 0.955357 Li
0.098214 0.383929 0.026786 Li
0.098214 0.383929 0.098214 Li
0.098214 0.383929 0.598214 Li
0.098214 0.383929 0.669643 Li
0.098214 0.383929 0.812500 Li
0.098214 0.455357 0.098214 Li
0.098214 0.455357 0.383929 Li
0.098214 0.455357 0.812500 Li
0.098214 0.455357 0.883929 Li
0.098214 0.455357 0.955357 Li
0.098214 0.526786 0.026786 Li
0.098214 0.526786 0.312500 Li
0.098214 0.526786 0.526786 Li
0.098214 0.526786 0.598214 Li
0.098214 0.526786 0.741071 Li
0.098214 0.526786 0.812500 Li
0.098214 0.526786 0.883929 Li
0.098214 0.598214 0.169643 Li
0.098214 0.598214 0.241071 Li
0.098214 0.598214 0.598214 Li
0.098214 0.598214 0.669643 Li
0.098214 0.598214 0.741071 Li
0.098214 0.598214 0.812500 Li
0.098214 0.598214 0.955357 Li
0.098214 0.669643 0.098214 Li
0.098214 0.669643 0.169643 Li
0.098214 0.669643 0.383929 Li
0.098214 0.669643 0.669643 Li
0.098214 0.669643 0.812500 Li
0.098214 0.669643 0.883929 Li
0.098214 0.669643 0.955357 Li
0.098214 0.741071 0.026786 Li
0.098214 0.741071 0.098214 Li
0.098214 0.741071 0.169643 Li
0.098214 0.741071 0.312500 Li
0.098214 0.741071 0.383929 Li
0.098214 0.741071 0.598214 Li
0.098214 0.741071 0.669643 Li
0.098214 0.741071 0.741071 Li
0.098214 0.741071 0.812500 Li
0.098214 0.812500 0.241071 Li
0.098214 0.812500 0.312500 Li
0.098214 0.812500 0.598214 Li
0.098214 0.812500 0.741071 Li
0.098214 0.812500 0.883929 Li
0.098214 0.883929 0.026786 Li
0.098214 0.883929 0.169643 Li
0.098214 0.883929 0.383929 Li
0.098214 0.883929 0.455357 Li
0.098214 0.883929 0.812500 Li
0.098214 0.883929 0.955357 Li
0.098214 0.955357 0.169643 Li
0.098214 0.955357 0.383929 Li
0.098214 0.955357 0.455357 Li
0.098214 0.955357 0.598214 Li
0.098214 0.955357 0.669643 Li
0.098214 0.955357 0.812500 Li
0.098214 0.955357 0.955357 Li
0.169643 0.026786 0.169643 Li
0.169643 0.026786 0.312500 Li
0.169643 0.026786 0.455357 Li
0.169643 0.026786 0.741071 Li
0.169643 0.026786 0.812500 Li
0.169643 0.026786 0.883929 Li
0.169643 0.026786 0.955357 Li
0.169643 0.098214 0.026786 Li
0.169643 0.098214 0.098214 Li
0.169643 0.098214 0.169643 Li
0.169643 0.098214 0.312500 Li
0.169643 0.098214 0.598214 Li
0.169643 0.098214 0.669643 Li
0.169643 0.098214 0.741071 Li
0.169643 0.098214 0.812500 Li
0.169643 0.098214 0.883929 Li
0.169643 0.098214 0.955357 Li
0.169643 0.169643 0.098214 Li
0.169643 0.169643 0.312500 Li
0.169643 0.169643 0.383929 Li
0.169643 0.169643 0.455357 Li
0.169643 0.169643 0.598214 Li
0.169643 0.169643 0.741071 Li
0.169643 0.169643 0.812500 Li
0.169643 0.169643 0.955357 Li
0.169643 0.241071 0.098214 Li
0.169643 0.241071 0.241071 Li
0.169643 0.241071 0.526786 Li
0.169643 0.241071 0.883929 Li
0.169643 0.241071 0.955357 Li
0.169643 0.312500 0.455357 Li
0.169643 0.312500 0.812500 Li
0.169643 0.312500 0.955357 Li
0.169643 0.383929 0.241071 Li
0.169643 0.383929 0.741071 Li
0.169643 0.383929 0.883929 Li
0.169643 0.455357 0.098214 Li
0.169643 0.455357 0.526786 Li
0.169643 0.455357 0.598214 Li
0.169643 0.455357 0.741071 Li
0.169643 0.455357 0.955357 Li
0.169643 0.526786 0.026786 Li
0.169643 0.526786 0.098214 Li
0.169643 0.526786 0.669643 Li
0.169643 0.526786 0.883929 Li
0.169643 0.526786 0.955357 Li
0.169643 0.598214 0.312500 Li
0.169643 0.598214 0.383929 Li
0.169643 0.598214 0.598214 Li
0.169643 0.598214 0.669643 Li
0.169643 0.598214 0.741071 Li
0.169643 0.669643 0.026786 Li
0.169643 0.669643 0.098214 Li
0.169643 0.669643 0.169643 Li
0.169643 0.669643 0.241071 Li
0.169643 0.669643 0.312500 Li
0.169643 0.669643 0.455357 Li
0.169643 0.669643 0.526786 Li
0.169643 0.669643 0.598214 Li
0.169643 0.669643 0.669643 Li
0.169643 0.669643 0.883929 Li
0.169643 0.669643 0.955357 Li
0.169643 0.741071 0.169643 Li
0.169643 0.741071 0.241071 Li
0.169643 0.741071 0.383929 Li
0.169643 0.741071 0.669643 Li
0.169643 0.741071 0.883929 Li
0.169643 0.741071 0.955357 Li
0.169643 0.812500 0.098214 Li
0.169643 0.812500 0.169643 Li
0.169643 0.812500 0.312500 Li
0.169643 0.812500 0.669643 Li
0.169643 0.812500 0.741071 Li
0.169643 0.812500 0.883929 Li
0.169643 0.883929 0.026786 Li
0.169643 0.883929 0.383929 Li
0.169643 0.883929 0.455357 Li
0.169643 0.883929 0.526786 Li
0.169643 0.883929 0.598214 Li
0.169643 0.883929 0.883929 Li
0.169643 0.955357 0.312500 Li
0.169643 0.955357 0.526786 Li
0.169643 0.955357 0.598214 Li
0.169643 0.955357 0.812500 Li
0.241071 0.026786 0.098214 Li
0.241071 0.026786 0.241071 Li
0.241071 0.026786 0.312500 Li
0.241071 0.026786 0.383929 Li
0.241071 0.026786 0.741071 Li
0.241071 0.026786 0.812500 Li
0.241071 0.098214 0.026786 Li
0.241071 0.098214 0.741071 Li
0.241071 0.098214 0.883929 Li
0.241071 0.169643 0.241071 Li
0.241071 0.169643 0.526786 Li
0.241071 0.169643 0.812500 Li
0.241071 0.169643 0.955357 Li
0.241071 0.241071 0.098214 Li
0.241071 0.241071 0.169643 Li
0.241071 0.241071 0.241071 Li
0.241071 0.241071 0.526786 Li
0.241071 0.312500 0.026786 Li
0.241071 0.312500 0.169643 Li
0.241071 0.312500 0.383929 Li
0.241071 0.312500 0.455357 Li
0.241071 0.312500 0.598214 Li
0.241071 0.312500 0.741071 Li
0.241071 0.312500 0.883929 Li
0.241071 0.383929 0.026786 Li
0.241071 0.383929 0.098214 Li
0.241071 0.383929 0.241071 Li
0.241071 0.383929 0.598214 Li
0.241071 0.383929 0.741071 Li
0.241071 0.455357 0.026786 Li
0.241071 0.455357 0.098214 Li
0.241071 0.455357 0.241071 Li
0.241071 0.455357 0.312500 Li
0.241071 0.455357 0.383929 Li
0.241071 0.455357 0.526786 Li
0.241071 0.455357 0.669643 Li
0.241071 0.455357 0.812500 Li
0.241071 0.455357 0.883929 Li
0.241071 0.526786 0.169643 Li
0.241071 0.526786 0.526786 Li
0.241071 0.526786 0.598214 Li
0.241071 0.526786 0.812500 Li
0.241071 0.598214 0.312500 Li
0.241071 0.598214 0.669643 Li
0.241071 0.598214 0.883929 Li
0.241071 0.669643 0.098214 Li
0.241071 0.669643 0.169643 Li
0.241071 0.669643 0.241071 Li
0.241071 0.669643 0.598214 Li
0.241071 0.669643 0.883929 Li
0.241071 0.741071 0.026786 Li
0.241071 0.741071 0.098214 Li
0.241071 0.741071 0.598214 Li
0.241071 0.741071 0.741071 Li
0.241071 0.741071 0.812500 Li
0.241071 0.812500 0.098214 Li
0.241071 0.812500 0.169643 Li
0.241071 0.812500 0.241071 Li
0.241071 0.812500 0.526786 Li
0.241071 0.812500 0.741071 Li
0.241071 0.812500 0.812500 Li
0.241071 0.812500 0.955357 Li
0.241071 0.883929 0.098214 Li
0.241071 0.883929 0.812500 Li
0.241071 0.955357 0.098214 Li
0.241071 0.955357 0.169643 Li
0.241071 0.955357 0.383929 Li
0.312500 0.026786 0.241071 Li
0.312500 0.026786 0.383929 Li
0.312500 0.026786 0.455357 Li
0.312500 0.026786 0.669643 Li
0.312500 0.026786 0.741071 Li
0.312500 0.026786 0.883929 Li
0.312500 0.098214 0.312500 Li
0.312500 0.098214 0.383929 Li
0.312500 0.098214 0.455357 Li
0.312500 0.098214 0.598214 Li
0.312500 0.098214 0.883929 Li
0.312500 0.098214 0.955357 Li
0.312500 0.169643 0.098214 Li
0.312500 0.169643 0.169643 Li
0.312500 0.169643 0.383929 Li
0.312500 0.169643 0.526786 Li
0.312500 0.169643 0.669643 Li
0.312500 0.169643 0.741071 Li
0.312500 0.169643 0.955357 Li
0.312500 0.241071 0.455357 Li
0.312500 0.241071 0.741071 Li
0.312500 0.241071 0.812500 Li
0.312500 0.312500 0.098214 Li
0.312500 0.312500 0.812500 Li
0.312500 0.312500 0.955357 Li
0.312500 0.383929 0.312500 Li
0.312500 0.383929 0.455357 Li
0.312500 0.383929 0.526786 Li
0.312500 0.383929 0.669643 Li
0.312500 0.383929 0.741071 Li
0.312500 0.383929 0.883929 Li
0.312500 0.383929 0.955357 Li
0.312500 0.455357 0.169643 Li
0.312500 0.455357 0.955357 Li
0.312500 0.526786 0.026786 Li
0.312500 0.526786 0.169643 Li
0.312500 0.526786 0.312500 Li
0.312500 0.526786 0.383929 Li
0.312500 0.526786 0.526786 Li
0.312500 0.526786 0.669643 Li
0.312500 0.526786 0.741071 Li
0.312500 0.526786 0.812500 Li
0.312500 0.598214 0.098214 Li
0.312500 0.598214 0.383929 Li
0.312500 0.598214 0.455357 Li
0.312500 0.598214 0.526786 Li
0.312500 0.598214 0.598214 Li
0.312500 0.669643 0.169643 Li
0.312500 0.669643 0.241071 Li
0.312500 0.669643 0.383929 Li
0.312500 0.669643 0.526786 Li
0.312500 0.669643 0.669643 Li
0.312500 0.669643 0.741071 Li
0.312500 0.669643 0.812500 Li
0.312500 0.741071 0.098214 Li
0.312500 0.741071 0.169643 Li
0.312500 0.741071 0.312500 Li
0.312500 0.741071 0.741071 Li
0.312500 0.741071 0.883929 Li
0.312500 0.812500 0.098214 Li
0.312500 0.812500 0.383929 Li
0.312500 0.812500 0.455357 Li
0.312500 0.812500 0.526786 Li
0.312500 0.883929 0.169643 Li
0.312500 0.883929 0.312500 Li
0.312500 0.883929 0.669643 Li
0.312500 0.883929 0.812500 Li
0.312500 0.955357 0.026786 Li
0.312500 0.955357 0.098214 Li
0.312500 0.955357 0.741071 Li
0.312500 0.955357 0.812500 Li
0.383929 0.026786 0.098214 Li
0.383929 0.026786 0.312500 Li
0.383929 0.026786 0.741071 Li
0.383929 0.098214 0.241071 Li
0.383929 0.098214 0.312500 Li
0.383929 0.098214 0.455357 Li
0.383929 0.098214 0.598214 Li
0.383929 0.098214 0.669643 Li
0.383929 0.098214 0.812500 Li
0.383929 0.098214 0.955357 Li
0.383929 0.169643 0.241071 Li
0.383929 0.169643 0.312500 Li
0.383929 0.169643 0.598214 Li
0.383929 0.169643 0.883929 Li
0.383929 0.241071 0.098214 Li
0.383929 0.241071 0.169643 Li
0.383929 0.241071 0.241071 Li
0.383929 0.241071 0.669643 Li
0.383929 0.312500 0.026786 Li
0.383929 0.312500 0.383929 Li
0.383929 0.312500 0.741071 Li
0.383929 0.312500 0.812500 Li
0.383929 0.383929 0.383929 Li
0.383929 0.383929 0.455357 Li
0.383929 0.383929 0.598214 Li
0.383929 0.383929 0.812500 Li
0.383929 0.383929 0.883929 Li
0.383929 0.455357 0.241071 Li
0.383929 0.455357 0.312500 Li
0.383929 0.526786 0.312500 Li
0.383929 0.526786 0.741071 Li
0.383929 0.526786 0.955357 Li
0.383929 0.598214 0.455357 Li
0.383929 0.598214 0.598214 Li
0.383929 0.598214 0.812500 Li
0.383929 0.669643 0.026786 Li
0.383929 0.669643 0.169643 Li
0.383929 0.669643 0.241071 Li
0.383929 0.669643 0.383929 Li
0.383929 0.669643 0.455357 Li
0.383929 0.669643 0.598214 Li
0.383929 0.669643 0.669643 Li
0.383929 0.741071 0.026786 Li
0.383929 0.741071 0.241071 Li
0.383929 0.741071 0.383929 Li
0.383929 0.741071 0.455357 Li
0.383929 0.741071 0.526786 Li
0.383929 0.741071 0.812500 Li
0.383929 0.812500 0.098214 Li
0.383929 0.812500 0.312500 Li
0.383929 0.812500 0.383929 Li
0.383929 0.812500 0.669643 Li
0.383929 0.812500 0.741071 Li
0.383929 0.812500 0.955357 Li
0.383929 0.883929 0.098214 Li
0.383929 0.883929 0.669643 Li
0.383929 0.883929 0.741071 Li
0.383929 0.955357 0.098214 Li
0.383929 0.955357 0.241071 Li
0.383929 0.955357 0.383929 Li
0.383929 0.955357 0.883929 Li
0.455357 0.026786 0.026786 Li
0.455357 0.026786 0.098214 Li
0.455357 0.026786 0.169643 Li
0.455357 0.026786 0.241071 Li
0.455357 0.026786 0.312500 Li
0.455357 0.026786 0.383929 Li
0.455357 0.026786 0.669643 Li
0.455357 0.026786 0.741071 Li
0.455357 0.026786 0.812500 Li
0.455357 0.098214 0.169643 Li
0.455357 0.098214 0.455357 Li
0.455357 0.098214 0.526786 Li
0.455357 0.098214 0.598214 Li
0.455357 0.098214 0.669643 Li
0.455357 0.098214 0.812500 Li
0.455357 0.098214 0.955357 Li
0.455357 0.169643 0.026786 Li
0.455357 0.169643 0.098214 Li
0.455357 0.169643 0.169643 Li
0.455357 0.169643 0.455357 Li
0.455357 0.169643 0.812500 Li
0.455357 0.241071 0.098214 Li
0.455357 0.241071 0.169643 Li
0.455357 0.241071 0.241071 Li
0.455357 0.241071 0.383929 Li
0.455357 0.241071 0.598214 Li
0.455357 0.241071 0.669643 Li
0.455357 0.241071 0.741071 Li
0.455357 0.241071 0.812500 Li
0.455357 0.241071 0.883929 Li
0.455357 0.241071 0.955357 Li
0.455357 0.312500 0.026786 Li
0.455357 0.312500 0.241071 Li
0.455357 0.312500 0.598214 Li
0.455357 0.312500 0.741071 Li
0.455357 0.312500 0.955357 Li
0.455357 0.383929 0.241071 Li
0.455357 0.383929 0.312500 Li
0.455357 0.383929 0.455357 Li
0.455357 0.383929 0.598214 Li
0.455357 0.383929 0.741071 Li
0.455357 0.455357 0.455357 Li
0.455357 0.455357 0.955357 Li
0.455357 0.526786 0.026786 Li
0.455357 0.526786 0.241071 Li
0.455357 0.526786 0.383929 Li
0.455357 0.526786 0.455357 Li
0.455357 0.526786 0.955357 Li
0.455357 0.598214 0.098214 Li
0.455357 0.598214 0.312500 Li
0.455357 0.598214 0.669643 Li
0.455357 0.598214 0.812500 Li
0.455357 0.598214 0.883929 Li
0.455357 0.669643 0.241071 Li
0.455357 0.669643 0.312500 Li
0.455357 0.669643 0.383929 Li
0.455357 0.669643 0.455357 Li
0.455357 0.669643 0.526786 Li
0.455357 0.669643 0.955357 Li
0.455357 0.741071 0.098214 Li
0.455357 0.741071 0.383929 Li
0.455357 0.741071 0.598214 Li
0.455357 0.741071 0.883929 Li
0.455357 0.812500 0.098214 Li
0.455357 0.812500 0.526786 Li
0.455357 0.812500 0.598214 Li
0.455357 0.812500 0.741071 Li
0.455357 0.812500 0.955357 Li
0.455357 0.883929 0.455357 Li
0.455357 0.883929 0.741071 Li
0.455357 0.883929 0.883929 Li
0.455357 0.955357 0.098214 Li
0.455357 0.955357 0.241071 Li
0.455357 0.955357 0.455357 Li
0.455357 0.955357 0.598214 Li
0.455357 0.955357 0.741071 Li
0.455357 0.955357 0.883929 Li
0.526786 0.026786 0.026786 Li
0.526786 0.026786 0.098214 Li
0.526786 0.026786 0.526786 Li
0.526786 0.026786 0.598214 Li
0.526786 0.026786 0.883929 Li
0.526786 0.026786 0.955357 Li
0.526786 0.098214 0.098214 Li
0.526786 0.098214 0.241071 Li
0.526786 0.098214 0.669643 Li
0.526786 0.098214 0.812500 Li
0.526786 0.098214 0.883929 Li
0.526786 0.098214 0.955357 Li
0.526786 0.169643 0.026786 Li
0.526786 0.169643 0.098214 Li
0.526786 0.169643 0.383929 Li
0.526786 0.169643 0.455357 Li
0.526786 0.169643 0.741071 Li
0.526786 0.169643 0.955357 Li
0.526786 0.241071 0.098214 Li
0.526786 0.241071 0.169643 Li
0.526786 0.241071 0.241071 Li
0.526786 0.241071 0.598214 Li
0.526786 0.241071 0.669643 Li
0.526786 0.241071 0.883929 Li
0.526786 0.312500 0.169643 Li
0.526786 0.312500 0.241071 Li
0.526786 0.312500 0.598214 Li
0.526786 0.312500 0.741071 Li
0.526786 0.312500 0.955357 Li
0.526786 0.383929 0.026786 Li
0.526786 0.383929 0.169643 Li
0.526786 0.383929 0.455357 Li
0.526786 0.383929 0.741071 Li
0.526786 0.383929 0.812500 Li
0.526786 0.455357 0.098214 Li
0.526786 0.455357 0.241071 Li
0.526786 0.455357 0.312500 Li
0.526786 0.455357 0.383929 Li
0.526786 0.455357 0.455357 Li
0.526786 0.455357 0.526786 Li
0.526786 0.455357 0.669643 Li
0.526786 0.455357 0.812500 Li
0.526786 0.526786 0.098214 Li
0.526786 0.526786 0.169643 Li
0.526786 0.526786 0.241071 Li
0.526786 0.526786 0.383929 Li
0.526786 0.526786 0.598214 Li
0.526786 0.526786 0.955357 Li
0.526786 0.598214 0.098214 Li
0.526786 0.598214 0.455357 Li
0.526786 0.598214 0.669643 Li
0.526786 0.598214 0.741071 Li
0.526786 0.669643 0.026786 Li
0.526786 0.669643 0.169643 Li
0.526786 0.669643 0.241071 Li
0.526786 0.669643 0.383929 Li
0.526786 0.669643 0.455357 Li
0.526786 0.669643 0.669643 Li
0.526786 0.669643 0.812500 Li
0.526786 0.741071 0.026786 Li
0.526786 0.741071 0.098214 Li
0.526786 0.741071 0.169643 Li
0.526786 0.741071 0.383929 Li
0.526786 0.741071 0.526786 Li
0.526786 0.741071 0.741071 Li
0.526786 0.741071 0.812500 Li
0.526786 0.812500 0.026786 Li
0.526786 0.812500 0.098214 Li
0.526786 0.883929 0.098214 Li
0.526786 0.883929 0.169643 Li
0.526786 0.883929 0.241071 Li
0.526786 0.883929 0.383929 Li
0.526786 0.883929 0.455357 Li
0.526786 0.883929 0.598214 Li
0.526786 0.883929 0.955357 Li
0.526786 0.955357 0.455357 Li
0.526786 0.955357 0.741071 Li
0.526786 0.955357 0.812500 Li
0.526786 0.955357 0.883929 Li
0.598214 0.026786 0.026786 Li
0.598214 0.026786 0.169643 Li
0.598214 0.026786 0.241071 Li
0.598214 0.026786 0.383929 Li
0.598214 0.026786 0.455357 Li
0.598214 0.026786 0.526786 Li
0.598214 0.098214 0.098214 Li
0.598214 0.098214 0.169643 Li
0.598214 0.098214 0.312500 Li
0.598214 0.098214 0.383929 Li
0.598214 0.098214 0.455357 Li
0.598214 0.098214 0.526786 Li
0.598214 0.098214 0.598214 Li
0.598214 0.098214 0.741071 Li
0.598214 0.169643 0.026786 Li
0.598214 0.169643 0.098214 Li
0.598214 0.169643 0.169643 Li
0.598214 0.169643 0.383929 Li
0.598214 0.169643 0.526786 Li
0.598214 0.169643 0.741071 Li
0.598214 0.169643 0.883929 Li
0.598214 0.241071 0.026786 Li
0.598214 0.241071 0.098214 Li
0.598214 0.241071 0.312500 Li
0.598214 0.241071 0.455357 Li
0.598214 0.241071 0.741071 Li
0.598214 0.241071 0.955357 Li
0.598214 0.312500 0.169643 Li
0.598214 0.312500 0.383929 Li
0.598214 0.312500 0.526786 Li
0.598214 0.312500 0.812500 Li
0.598214 0.383929 0.026786 Li
0.598214 0.383929 0.098214 Li
0.598214 0.383929 0.241071 Li
0.598214 0.383929 0.526786 Li
0.598214 0.383929 0.812500 Li
0.598214 0.455357 0.098214 Li
0.598214 0.526786 0.098214 Li
0.598214 0.526786 0.383929 Li
0.598214 0.526786 0.455357 Li
0.598214 0.526786 0.741071 Li
0.598214 0.526786 0.955357 Li
0.598214 0.598214 0.241071 Li
0.598214 0.598214 0.383929 Li
0.598214 0.598214 0.526786 Li
0.598214 0.598214 0.741071 Li
0.598214 0.598214 0.812500 Li
0.598214 0.598214 0.955357 Li
0.598214 0.669643 0.026786 Li
0.598214 0.669643 0.098214 Li
0.598214 0.669643 0.455357 Li
0.598214 0.669643 0.526786 Li
0.598214 0.669643 0.598214 Li
0.598214 0.669643 0.741071 Li
0.598214 0.669643 0.883929 Li
0.598214 0.741071 0.098214 Li
0.598214 0.741071 0.312500 Li
0.598214 0.741071 0.383929 Li
0.598214 0.741071 0.455357 Li
0.598214 0.741071 0.669643 Li
0.598214 0.741071 0.955357 Li
0.598214 0.812500 0.026786 Li
0.598214 0.812500 0.241071 Li
0.598214 0.812500 0.312500 Li
0.598214 0.812500 0.455357 Li
0.598214 0.812500 0.526786 Li
0.598214 0.812500 0.598214 Li
0.598214 0.812500 0.741071 Li
0.598214 0.812500 0.955357 Li
0.598214 0.883929 0.169643 Li
0.598214 0.883929 0.312500 Li
0.598214 0.883929 0.455357 Li
0.598214 0.883929 0.741071 Li
0.598214 0.883929 0.955357 Li
0.598214 0.955357 0.169643 Li
0.598214 0.955357 0.312500 Li
0.598214 0.955357 0.383929 Li
0.598214 0.955357 0.526786 Li
0.598214 0.955357 0.598214 Li
0.598214 0.955357 0.669643 Li
0.669643 0.026786 0.526786 Li
0.669643 0.026786 0.598214 Li
0.669643 0.026786 0.812500 Li
0.669643 0.098214 0.312500 Li
0.669643 0.098214 0.383929 Li
0.669643 0.098214 0.812500 Li
0.669643 0.098214 0.883929 Li
0.669643 0.098214 0.955357 Li
0.669643 0.169643 0.026786 Li
0.669643 0.169643 0.098214 Li
0.669643 0.169643 0.241071 Li
0.669643 0.169643 0.312500 Li
0.669643 0.169643 0.455357 Li
0.669643 0.169643 0.741071 Li
0.669643 0.169643 0.883929 Li
0.669643 0.169643 0.955357 Li
0.669643 0.241071 0.312500 Li
0.669643 0.241071 0.383929 Li
0.669643 0.241071 0.526786 Li
0.669643 0.241071 0.669643 Li
0.669643 0.241071 0.812500 Li
0.669643 0.241071 0.883929 Li
0.669643 0.241071 0.955357 Li
0.669643 0.312500 0.169643 Li
0.669643 0.312500 0.312500 Li
0.669643 0.312500 0.598214 Li
0.669643 0.312500 0.812500 Li
0.669643 0.383929 0.241071 Li
0.669643 0.383929 0.383929 Li
0.669643 0.383929 0.598214 Li
0.669643 0.383929 0.955357 Li
0.669643 0.455357 0.455357 Li
0.669643 0.455357 0.598214 Li
0.669643 0.526786 0.169643 Li
0.669643 0.526786 0.241071 Li
0.669643 0.526786 0.741071 Li
0.669643 0.598214 0.098214 Li
0.669643 0.598214 0.241071 Li
0.669643 0.598214 0.312500 Li
0.669643 0.598214 0.455357 Li
0.669643 0.598214 0.741071 Li
0.669643 0.598214 0.812500 Li
0.669643 0.598214 0.883929 Li
0.669643 0.669643 0.026786 Li
0.669643 0.669643 0.169643 Li
0.669643 0.669643 0.383929 Li
0.669643 0.669643 0.812500 Li
0.669643 0.669643 0.955357 Li
0.669643 0.741071 0.026786 Li
0.669643 0.741071 0.455357 Li
0.669643 0.741071 0.526786 Li
0.669643 0.741071 0.669643 Li
0.669643 0.812500 0.098214 Li
0.669643 0.812500 0.169643 Li
0.669643 0.812500 0.241071 Li
0.669643 0.812500 0.312500 Li
0.669643 0.812500 0.383929 Li
0.669643 0.812500 0.455357 Li
0.669643 0.812500 0.526786 Li
0.669643 0.812500 0.598214 Li
0.669643 0.812500 0.883929 Li
0.669643 0.883929 0.169643 Li
0.669643 0.883929 0.383929 Li
0.669643 0.883929 0.455357 Li
0.669643 0.883929 0.741071 Li
0.669643 0.955357 0.098214 Li
0.669643 0.955357 0.241071 Li
0.669643 0.955357 0.383929 Li
0.669643 0.955357 0.526786 Li
0.669643 0.955357 0.598214 Li
0.669643 0.955357 0.812500 Li
0.741071 0.026786 0.026786 Li
0.741071 0.026786 0.169643 Li
0.741071 0.026786 0.241071 Li
0.741071 0.026786 0.383929 Li
0.741071 0.026786 0.455357 Li
0.741071 0.026786 0.526786 Li
0.741071 0.026786 0.812500 Li
0.741071 0.026786 0.883929 Li
0.741071 0.098214 0.098214 Li
0.741071 0.098214 0.241071 Li
0.741071 0.098214 0.312500 Li
0.741071 0.098214 0.526786 Li
0.741071 0.098214 0.883929 Li
0.741071 0.169643 0.169643 Li
0.741071 0.169643 0.312500 Li
0.741071 0.169643 0.455357 Li
0.741071 0.169643 0.526786 Li
0.741071 0.169643 0.598214 Li
0.741071 0.169643 0.669643 Li
0.741071 0.241071 0.169643 Li
0.741071 0.241071 0.241071 Li
0.741071 0.241071 0.883929 Li
0.741071 0.241071 0.955357 Li
0.741071 0.312500 0.026786 Li
0.741071 0.312500 0.241071 Li
0.741071 0.312500 0.312500 Li
0.741071 0.312500 0.455357 Li
0.741071 0.312500 0.526786 Li
0.741071 0.312500 0.669643 Li
0.741071 0.383929 0.241071 Li
0.741071 0.383929 0.312500 Li
0.741071 0.383929 0.455357 Li
0.741071 0.455357 0.026786 Li
0.741071 0.455357 0.098214 Li
0.741071 0.455357 0.526786 Li
0.741071 0.455357 0.741071 Li
0.741071 0.526786 0.169643 Li
0.741071 0.526786 0.455357 Li
0.741071 0.526786 0.955357 Li
0.741071 0.598214 0.169643 Li
0.741071 0.598214 0.455357 Li
0.741071 0.598214 0.598214 Li
0.741071 0.598214 0.812500 Li
0.741071 0.598214 0.955357 Li
0.741071 0.669643 0.026786 Li
0.741071 0.669643 0.098214 Li
0.741071 0.669643 0.169643 Li
0.741071 0.669643 0.241071 Li
0.741071 0.669643 0.312500 Li
0.741071 0.669643 0.383929 Li
0.741071 0.669643 0.455357 Li
0.741071 0.669643 0.526786 Li
0.741071 0.669643 0.669643 Li
0.741071 0.669643 0.883929 Li
0.741071 0.741071 0.026786 Li
0.741071 0.741071 0.741071 Li
0.741071 0.812500 0.098214 Li
0.741071 0.812500 0.241071 Li
0.741071 0.812500 0.312500 Li
0.741071 0.812500 0.455357 Li
0.741071 0.812500 0.669643 Li
0.741071 0.883929 0.669643 Li
0.741071 0.883929 0.883929 Li
0.741071 0.883929 0.955357 Li
0.741071 0.955357 0.169643 Li
0.741071 0.955357 0.312500 Li
0.741071 0.955357 0.383929 Li
0.741071 0.955357 0.669643 Li
0.741071 0.955357 0.812500 Li
0.741071 0.955357 0.883929 Li
0.741071 0.955357 0.955357 Li
0.812500 0.026786 0.098214 Li
0.812500 0.026786 0.455357 Li
0.812500 0.026786 0.526786 Li
0.812500 0.026786 0.741071 Li
0.812500 0.026786 0.812500 Li
0.812500 0.026786 0.883929 Li
0.812500 0.098214 0.026786 Li
0.812500 0.098214 0.098214 Li
0.812500 0.098214 0.169643 Li
0.812500 0.098214 0.312500 Li
0.812500 0.098214 0.383929 Li
0.812500 0.098214 0.455357 Li
0.812500 0.098214 0.598214 Li
0.812500 0.098214 0.883929 Li
0.812500 0.098214 0.955357 Li
0.812500 0.169643 0.169643 Li
0.812500 0.169643 0.383929 Li
0.812500 0.169643 0.455357 Li
0.812500 0.169643 0.598214 Li
0.812500 0.169643 0.741071 Li
0.812500 0.169643 0.812500 Li
0.812500 0.169643 0.955357 Li
0.812500 0.241071 0.026786 Li
0.812500 0.241071 0.169643 Li
0.812500 0.241071 0.241071 Li
0.812500 0.241071 0.312500 Li
0.812500 0.241071 0.455357 Li
0.812500 0.241071 0.526786 Li
0.812500 0.241071 0.598214 Li
0.812500 0.241071 0.741071 Li
0.812500 0.241071 0.812500 Li
0.812500 0.312500 0.241071 Li
0.812500 0.312500 0.312500 Li
0.812500 0.312500 0.455357 Li
0.812500 0.312500 0.526786 Li
0.812500 0.312500 0.883929 Li
0.812500 0.383929 0.241071 Li
0.812500 0.383929 0.312500 Li
0.812500 0.383929 0.669643 Li
0.812500 0.383929 0.883929 Li
0.812500 0.455357 0.026786 Li
0.812500 0.455357 0.169643 Li
0.812500 0.455357 0.241071 Li
0.812500 0.455357 0.312500 Li
0.812500 0.455357 0.455357 Li
0.812500 0.455357 0.526786 Li
0.812500 0.455357 0.741071 Li
0.812500 0.455357 0.883929 Li
0.812500 0.526786 0.026786 Li
0.812500 0.526786 0.169643 Li
0.812500 0.526786 0.741071 Li
0.812500 0.526786 0.883929 Li
0.812500 0.526786 0.955357 Li
0.812500 0.598214 0.241071 Li
0.812500 0.598214 0.312500 Li
0.812500 0.598214 0.455357 Li
0.812500 0.598214 0.669643 Li
0.812500 0.598214 0.741071 Li
0.812500 0.669643 0.169643 Li
0.812500 0.669643 0.241071 Li
0.812500 0.669643 0.669643 Li
0.812500 0.669643 0.741071 Li
0.812500 0.669643 0.812500 Li
0.812500 0.741071 0.169643 Li
0.812500 0.741071 0.241071 Li
0.812500 0.741071 0.741071 Li
0.812500 0.741071 0.955357 Li
0.812500 0.812500 0.026786 Li
0.812500 0.812500 0.098214 Li
0.812500 0.812500 0.169643 Li
0.812500 0.812500 0.241071 Li
0.812500 0.812500 0.312500 Li
0.812500 0.812500 0.383929 Li
0.812500 0.812500 0.455357 Li
0.812500 0.812500 0.526786 Li
0.812500 0.812500 0.812500 Li
0.812500 0.883929 0.169643 Li
0.812500 0.883929 0.241071 Li
0.812500 0.883929 0.312500 Li
0.812500 0.883929 0.383929 Li
0.812500 0.883929 0.598214 Li
0.812500 0.883929 0.669643 Li
0.812500 0.883929 0.955357 Li
0.812500 0.955357 0.241071 Li
0.812500 0.955357 0.741071 Li
0.812500 0.955357 0.883929 Li
0.883929 0.026786 0.026786 Li
0.883929 0.026786 0.455357 Li
0.883929 0.026786 0.598214 Li
0.883929 0.026786 0.741071 Li
0.883929 0.026786 0.955357 Li
0.883929 0.098214 0.169643 Li
0.883929 0.098214 0.455357 Li
0.883929 0.098214 0.598214 Li
0.883929 0.098214 0.741071 Li
0.883929 0.098214 0.812500 Li
0.883929 0.098214 0.955357 Li
0.883929 0.169643 0.098214 Li
0.883929 0.169643 0.169643 Li
0.883929 0.169643 0.241071 Li
0.883929 0.169643 0.312500 Li
0.883929 0.169643 0.669643 Li
0.883929 0.169643 0.741071 Li
0.883929 0.169643 0.955357 Li
0.883929 0.241071 0.383929 Li
0.883929 0.241071 0.455357 Li
0.883929 0.241071 0.598214 Li
0.883929 0.241071 0.741071 Li
0.883929 0.241071 0.812500 Li
0.883929 0.312500 0.241071 Li
0.883929 0.312500 0.455357 Li
0.883929 0.312500 0.669643 Li
0.883929 0.312500 0.741071 Li
0.883929 0.312500 0.812500 Li
0.883929 0.383929 0.026786 Li
0.883929 0.383929 0.383929 Li
0.883929 0.383929 0.669643 Li
0.883929 0.383929 0.741071 Li
0.883929 0.383929 0.955357 Li
0.883929 0.455357 0.098214 Li
0.883929 0.455357 0.169643 Li
0.883929 0.455357 0.312500 Li
0.883929 0.455357 0.455357 Li
0.883929 0.455357 0.598214 Li
0.883929 0.455357 0.812500 Li
0.883929 0.455357 0.955357 Li
0.883929 0.526786 0.169643 Li
0.883929 0.526786 0.241071 Li
0.883929 0.526786 0.383929 Li
0.883929 0.526786 0.526786 Li
0.883929 0.598214 0.241071 Li
0.883929 0.598214 0.455357 Li
0.883929 0.598214 0.598214 Li
0.883929 0.598214 0.741071 Li
0.883929 0.598214 0.812500 Li
0.883929 0.598214 0.955357 Li
0.883929 0.669643 0.741071 Li
0.883929 0.669643 0.883929 Li
0.883929 0.741071 0.026786 Li
0.883929 0.741071 0.098214 Li
0.883929 0.741071 0.455357 Li
0.883929 0.812500 0.098214 Li
0.883929 0.812500 0.169643 Li
0.883929 0.812500 0.312500 Li
0.883929 0.812500 0.455357 Li
0.883929 0.812500 0.669643 Li
0.883929 0.883929 0.098214 Li
0.883929 0.883929 0.169643 Li
0.883929 0.883929 0.241071 Li
0.883929 0.883929 0.312500 Li
0.883929 0.883929 0.526786 Li
0.883929 0.883929 0.598214 Li
0.883929 0.883929 0.669643 Li
0.883929 0.883929 0.741071 Li
0.883929 0.955357 0.098214 Li
0.883929 0.955357 0.812500 Li
0.883929 0.955357 0.883929 Li
0.955357 0.026786 0.026786 Li
0.955357 0.026786 0.241071 Li
0.955357 0.026786 0.383929 Li
0.955357 0.026786 0.455357 Li
0.955357 0.026786 0.741071 Li
0.955357 0.026786 0.812500 Li
0.955357 0.026786 0.883929 Li
0.955357 0.026786 0.955357 Li
0.955357 0.098214 0.169643 Li
0.955357 0.098214 0.312500 Li
0.955357 0.098214 0.455357 Li
0.955357 0.098214 0.741071 Li
0.955357 0.098214 0.955357 Li
0.955357 0.169643 0.098214 Li
0.955357 0.169643 0.598214 Li