Li8000
1.0
80.800000 0.000000 0.000000
0.000000 80.800000 0.000000
0.000000 0.000000 80.800000
Li
8000
Selective dynamics
direct
0.037500 0.037500 0.037500 F F F Li
0.037500 0.037500 0.137500 F F F Li
0.037500 0.037500 0.237500 F F F Li
0.037500 0.037500 0.337500 F F F Li
0.037500 0.037500 0.437500 F F F Li
0.037500 0.037500 0.537500 F F F Li
0.037500 0.037500 0.637500 F F F Li
0.037500 0.037500 0.737500 F F F Li
0.037500 0.037500 0.837500 F F F Li
0.037500 0.037500 0.937500 F F F Li
0.037500 0.137500 0.037500 F F F Li
0.037500 0.137500 0.137500 F F F Li
0.037500 0.137500 0.237500 F F F Li
0.037500 0.137500 0.337500 F F F Li
0.037500 0.137500 0.437500 F F F Li
0.037500 0.137500 0.537500 F F F Li
0.037500 0.137500 0.637500 F F F Li
0.037500 0.137500 0.737500 F F F Li
0.037500 0.137500 0.837500 F F F Li
0.037500 0.137500 0.937500 F F F Li
0.037500 0.237500 0.037500 F F F Li
0.037500 0.237500 0.137500 F F F Li
0.037500 0.237500 0.237500 F F F Li
0.037500 0.237500 0.337500 F F F Li
0.037500 0.237500 0.437500 F F F Li
0.037500 0.237500 0.537500 F F F Li
0.037500 0.237500 0.637500 F F F Li
0.037500 0.237500 0.737500 F F F Li
0.037500 0.237500 0.837500 F F F Li
0.037500 0.237500 0.937500 F F F Li
0.037500 0.337500 0.037500 F F F Li
0.037500 0.337500 0.137500 F F F Li
0.037500 0.337500 0.237500 F F F Li
0.037500 0.337500 0.337500 F F F Li
0.037500 0.337500 0.437500 F F F Li
0.037500 0.337500 0.537500 F F F Li
0.037500 0.337500 0.637500 F F F Li
0.037500 0.337500 0.737500 F F F Li
0.037500 0.337500 0.837500 F F F Li
0.037500 0.337500 0.937500 F F F Li
0.037500 0.437500 0.037500 F F F Li
0.037500 0.437500 0.137500 F F F Li
0.037500 0.437500 0.237500 F F F Li
0.037500 0.437500 0.337500 F F F Li
0.037500 0.437500 0.437500 F F F Li
0.037500 0.437500 0.537500 F F F Li
0.037500 0.437500 0.637500 F F F Li
0.037500 0.437500 0.737500 F F F Li
0.037500 0.437500 0.837500 F F F Li
0.037500 0.437500 0.937500 F F F Li
0.037500 0.537500 0.037500 F F F Li
0.037500 0.537500 0.137500 F F F Li
0.037500 0.537500 0.237500 F F F Li
0.037500 0.537500 0.337500 F F F Li
0.037500 0.537500 0.437500 F F F Li
0.037500 0.537500 0.537500 F F F Li
0.037500 0.537500 0.637500 F F F Li
0.037500 0.537500 0.737500 F F F Li
0.037500 0.537500 0.837500 F F F Li
0.037500 0.537500 0.937500 F F F Li
0.037500 0.637500 0.037500 F F F Li
0.037500 0.637500 0.137500 F F F Li
0.037500 0.637500 0.237500 F F F Li
0.037500 0.637500 0.337500 F F F Li
0.037500 0.637500 0.437500 F F F Li
0.037500 0.637500 0.537500 F F F Li
0.037500 0.637500 0.637500 F F F Li
0.037500 0.637500 0.737500 F F F Li
0.037500 0.637500 0.837500 F F F Li
0.037500 0.637500 0.937500 F F F Li
0.037500 0.737500 0.037500 F F F Li
0.037500 0.737500 0.137500 F F F Li
0.037500 0.737500 0.237500 F F F Li
0.037500 0.737500 0.337500 F F F Li
0.037500 0.737500 0.437500 F F F Li
0.037500 0.737500 0.537500 F F F Li
0.037500 0.737500 0.637500 F F F Li
0.037500 0.737500 0.737500 F F F Li
0.037500 0.737500 0.837500 F F F Li
0.037500 0.737500 0.937500 F F F Li
0.037500 0.837500 0.037500 F F F Li
0.037500 0.837500 0.137500 F F F Li
0.037500 0.837500 0.237500 F F F Li
0.037500 0.837500 0.337500 F F F Li
0.037500 0.837500 0.437500 F F F Li
0.037500 0.837500 0.537500 F F F Li
0.037500 0.837500 0.637500 F F F Li
0.037500 0.837500 0.737500 F F F Li
0.037500 0.837500 0.837500 F F F Li
0.037500 0.837500 0.937500 F F F Li
0.037500 0.937500 0.037500 F F F Li
0.037500 0.937500 0.137500 F F F Li
0.037500 0.937500 0.237500 F F F Li
0.037500 0.937500 0.337500 F F F Li
0.037500 0.937500 0.437500 F F F Li
0.037500 0.937500 0.537500 F F F Li
0.037500 0.937500 0.637500 F F F Li
0.037500 0.937500 0.737500 F F F Li
0.037500 0.937500 0.837500 F F F Li
0.037500 0.937500 0.937500 F F F Li
0.137500 0.037500 0.037500 F F F Li
0.137500 0.037500 0.137500 F F F Li
0.137500 0.037500 0.237500 F F F Li
0.137500 0.037500 0.337500 F F F Li
0.137500 0.037500 0.437500 F F F Li
0.137500 0.037500 0.537500 F F F Li
0.137500 0.037500 0.637500 F F F Li
0.137500 0.037500 0.737500 F F F Li
0.137500 0.037500 0.837500 F F F Li
0.137500 0.037500 0.937500 F F F Li
0.137500 0.137500 0.037500 F F F Li
0.137500 0.137500 0.137500 F F F Li
0.137500 0.137500 0.237500 F F F Li
0.137500 0.137500 0.337500 F F F Li
0.137500 0.137500 0.437500 F F F Li
0.137500 0.137500 0.537500 F F F Li
0.137500 0.137500 0.637500 F F F Li
0.137500 0.137500 0.737500 F F F Li
0.137500 0.137500 0.837500 F F F Li
0.137500 0.137500 0.937500 F F F Li
0.137500 0.237500 0.037500 F F F Li
0.137500 0.237500 0.137500 F F F Li
0.137500 0.237500 0.237500 F F F Li
0.137500 0.237500 0.337500 F F F Li
0.137500 0.237500 0.437500 F F F Li
0.137500 0.237500 0.537500 F F F Li
0.137500 0.237500 0.637500 F F F Li
0.137500 0.237500 0.737500 F F F Li
0.137500 0.237500 0.837500 F F F Li
0.137500 0.237500 0.937500 F F F Li
0.137500 0.337500 0.037500 F F F Li
0.137500 0.337500 0.137500 F F F Li
0.137500 0.337500 0.237500 F F F Li
0.137500 0.337500 0.337500 F F F Li
0.137500 0.337500 0.437500 F F F Li
0.137500 0.337500 0.537500 F F F Li
0.137500 0.337500 0.637500 F F F Li
0.137500 0.337500 0.737500 F F F Li
0.137500 0.337500 0.837500 F F F Li
0.137500 0.337500 0.937500 F F F Li
0.137500 0.437500 0.037500 F F F Li
0.137500 0.437500 0.137500 F F F Li
0.137500 0.437500 0.237500 F F F Li
0.137500 0.437500 0.337500 F F F Li
0.137500 0.437500 0.437500 F F F Li
0.137500 0.437500 0.537500 F F F Li
0.137500 0.437500 0.637500 F F F Li
0.137500 0.437500 0.737500 F F F Li
0.137500 0.437500 0.837500 F F F Li
0.137500 0.437500 0.937500 F F F Li
0.137500 0.537500 0.037500 F F F Li
0.137500 0.537500 0.137500 F F F Li
0.137500 0.537500 0.237500 F F F Li
0.137500 0.537500 0.337500 F F F Li
0.137500 0.537500 0.437500 F F F Li
0.137500 0.537500 0.537500 F F F Li
0.137500 0.537500 0.637500 F F F Li
0.137500 0.537500 0.737500 F F F Li
0.137500 0.537500 0.837500 F F F Li
0.137500 0.537500 0.937500 F F F Li
0.137500 0.637500 0.037500 F F F Li
0.137500 0.637500 0.137500 F F F Li
0.137500 0.637500 0.237500 F F F Li
0.137500 0.637500 0.337500 F F F Li
0.137500 0.637500 0.437500 F F F Li
0.137500 0.637500 0.537500 F F F Li
0.137500 0.637500 0.637500 F F F Li
0.137500 0.637500 0.737500 F F F Li
0.137500 0.637500 0.837500 F F F Li
0.137500 0.637500 0.937500 F F F Li
0.137500 0.737500 0.037500 F F F Li
0.137500 0.737500 0.137500 F F F Li
0.137500 0.737500 0.237500 F F F Li
0.137500 0.737500 0.337500 F F F Li
0.137500 0.737500 0.437500 F F F Li
0.137500 0.737500 0.537500 F F F Li
0.137500 0.737500 0.637500 F F F Li
0.137500 0.737500 0.737500 F F F Li
0.137500 0.737500 0.837500 F F F Li
0.137500 0.737500 0.937500 F F F Li
0.137500 0.837500 0.037500 F F F Li
0.137500 0.837500 0.137500 F F F Li
0.137500 0.837500 0.237500 F F F Li
0.137500 0.837500 0.337500 F F F Li
0.137500 0.837500 0.437500 F F F Li
0.137500 0.837500 0.537500 F F F Li
0.137500 0.837500 0.637500 F F F Li
0.137500 0.837500 0.737500 F F F Li
0.137500 0.837500 0.837500 F F F Li
0.137500 0.837500 0.937500 F F F Li
0.137500 0.937500 0.037500 F F F Li
0.137500 0.937500 0.137500 F F F Li
0.137500 0.937500 0.237500 F F F Li
0.137500 0.937500 0.337500 F F F Li
0.137500 0.937500 0.437500 F F F Li
0.137500 0.937500 0.537500 F F F Li
0.137500 0.937500 0.637500 F F F Li
0.137500 0.937500 0.737500 F F F Li
0.137500 0.937500 0.837500 F F F Li
0.137500 0.937500 0.937500 F F F Li
0.237500 0.037500 0.037500 F F F Li
0.237500 0.037500 0.137500 F F F Li
0.237500 0.037500 0.237500 F F F Li
0.237500 0.037500 0.337500 F F F Li
0.237500 0.037500 0.437500 F F F Li
0.237500 0.037500 0.537500 F F F Li
0.237500 0.037500 0.637500 F F F Li
0.237500 0.037500 0.737500 F F F Li
0.237500 0.037500 0.837500 F F F Li
0.237500 0.037500 0.937500 F F F Li
0.237500 0.137500 0.037500 F F F Li
0.237500 0.137500 0.137500 F F F Li
0.237500 0.137500 0.237500 F F F Li
0.237500 0.137500 0.337500 F F F Li
0.237500 0.137500 0.437500 F F F Li
0.237500 0.137500 0.537500 F F F Li
0.237500 0.137500 0.637500 F F F Li
0.237500 0.137500 0.737500 F F F Li
0.237500 0.137500 0.837500 F F F Li
0.237500 0.137500 0.937500 F F F Li
0.237500 0.237500 0.037500 F F F Li
0.237500 0.237500 0.137500 F F F Li
0.237500 0.237500 0.237500 F F F Li
0.237500 0.237500 0.337500 F F F Li
0.237500 0.237500 0.437500 F F F Li
0.237500 0.237500 0.537500 F F F Li
0.237500 0.237500 0.637500 F F F Li
0.237500 0.237500 0.737500 F F F Li
0.237500 0.237500 0.837500 F F F Li
0.237500 0.237500 0.937500 F F F Li
0.237500 0.337500 0.037500 F F F Li
0.237500 0.337500 0.137500 F F F Li
0.237500 0.337500 0.237500 F F F Li
0.237500 0.337500 0.337500 F F F Li
0.237500 0.337500 0.437500 F F F Li
0.237500 0.337500 0.537500 F F F Li
0.237500 0.337500 0.637500 F F F Li
0.237500 0.337500 0.737500 F F F Li
0.237500 0.337500 0.837500 F F F Li
0.237500 0.337500 0.937500 F F F Li
0.237500 0.437500 0.037500 F F F Li
0.237500 0.437500 0.137500 F F F Li
0.237500 0.437500 0.237500 F F F Li
0.237500 0.437500 0.337500 F F F Li
0.237500 0.437500 0.437500 F F F Li
0.237500 0.437500 0.537500 F F F Li
0.237500 0.437500 0.637500 F F F Li
0.237500 0.437500 0.737500 F F F Li
0.237500 0.437500 0.837500 F F F Li
0.237500 0.437500 0.937500 F F F Li
0.237500 0.537500 0.037500 F F F Li
0.237500 0.537500 0.137500 F F F Li
0.237500 0.537500 0.237500 F F F Li
0.237500 0.537500 0.337500 F F F Li
0.237500 0.537500 0.437500 F F F Li
0.237500 0.537500 0.537500 F F F Li
0.237500 0.537500 0.637500 F F F Li
0.237500 0.537500 0.737500 F F F Li
0.237500 0.537500 0.837500 F F F Li
0.237500 0.537500 0.937500 F F F Li
0.237500 0.637500 0.037500 F F F Li
0.237500 0.637500 0.137500 F F F Li
0.237500 0.637500 0.237500 F F F Li
0.237500 0.637500 0.337500 F F F Li
0.237500 0.637500 0.437500 F F F Li
0.237500 0.637500 0.537500 F F F Li
0.237500 0.637500 0.637500 F F F Li
0.237500 0.637500 0.737500 F F F Li
0.237500 0.637500 0.837500 F F F Li
0.237500 0.637500 0.937500 F F F Li
0.237500 0.737500 0.037500 F F F Li
0.237500 0.737500 0.137500 F F F Li
0.237500 0.737500 0.237500 F F F Li
0.237500 0.737500 0.337500 F F F Li
0.237500 0.737500 0.437500 F F F Li
0.237500 0.737500 0.537500 F F F Li
0.237500 0.737500 0.637500 F F F Li
0.237500 0.737500 0.737500 F F F Li
0.237500 0.737500 0.837500 F F F Li
0.237500 0.737500 0.937500 F F F Li
0.237500 0.837500 0.037500 F F F Li
0.237500 0.837500 0.137500 F F F Li
0.237500 0.837500 0.237500 F F F Li
0.237500 0.837500 0.337500 F F F Li
0.237500 0.837500 0.437500 F F F Li
0.237500 0.837500 0.537500 F F F Li
0.237500 0.837500 0.637500 F F F Li
0.237500 0.837500 0.737500 F F F Li
0.237500 0.837500 0.837500 F F F Li
0.237500 0.837500 0.937500 F F F Li
0.237500 0.937500 0.037500 F F F Li
0.237500 0.937500 0.137500 F F F Li
0.237500 0.937500 0.237500 F F F Li
0.237500 0.937500 0.337500 F F F Li
0.237500 0.937500 0.437500 F F F Li
0.237500 0.937500 0.537500 F F F Li
0.237500 0.937500 0.637500 F F F Li
0.237500 0.937500 0.737500 F F F Li
0.237500 0.937500 0.837500 F F F Li
0.237500 0.937500 0.937500 F F F Li
0.337500 0.037500 0.037500 F F F Li
0.337500 0.037500 0.137500 F F F Li
0.337500 0.037500 0.237500 F F F Li
0.337500 0.037500 0.337500 F F F Li
0.337500 0.037500 0.437500 F F F Li
0.337500 0.037500 0.537500 F F F Li
0.337500 0.037500 0.637500 F F F Li
0.337500 0.037500 0.737500 F F F Li
0.337500 0.037500 0.837500 F F F Li
0.337500 0.037500 0.937500 F F F Li
0.337500 0.137500 0.037500 F F F Li
0.337500 0.137500 0.137500 F F F Li
0.337500 0.137500 0.237500 F F F Li
0.337500 0.137500 0.337500 F F F Li
0.337500 0.137500 0.437500 F F F Li
0.337500 0.137500 0.537500 F F F Li
0.337500 0.137500 0.637500 F F F Li
0.337500 0.137500 0.737500 F F F Li
0.337500 0.137500 0.837500 F F F Li
0.337500 0.137500 0.937500 F F F Li
0.337500 0.237500 0.037500 F F F Li
0.337500 0.237500 0.137500 F F F Li
0.337500 0.237500 0.237500 F F F Li
0.337500 0.237500 0.337500 F F F Li
0.337500 0.237500 0.437500 F F F Li
0.337500 0.237500 0.537500 F F F Li
0.337500 0.237500 0.637500 F F F Li
0.337500 0.237500 0.737500 F F F Li
0.337500 0.237500 0.837500 F F F Li
0.337500 0.237500 0.937500 F F F Li
0.337500 0.337500 0.037500 F F F Li
0.337500 0.337500 0.137500 F F F Li
0.337500 0.337500 0.237500 F F F Li
0.337500 0.337500 0.337500 F F F Li
0.337500 0.337500 0.437500 F F F Li
0.337500 0.337500 0.537500 F F F Li
0.337500 0.337500 0.637500 F F F Li
0.337500 0.337500 0.737500 F F F Li
0.337500 0.337500 0.837500 F F F Li
0.337500 0.337500 0.937500 F F F Li
0.337500 0.437500 0.037500 F F F Li
0.337500 0.437500 0.137500 F F F Li
0.337500 0.437500 0.237500 F F F Li
0.337500 0.437500 0.337500 F F F Li
0.337500 0.437500 0.437500 F F F Li
0.337500 0.437500 0.537500 F F F Li
0.337500 0.437500 0.637500 F F F Li
0.337500 0.437500 0.737500 F F F Li
0.337500 0.437500 0.837500 F F F Li
0.337500 0.437500 0.937500 F F F Li
0.337500 0.537500 0.037500 F F F Li
0.337500 0.537500 0.137500 F F F Li
0.337500 0.537500 0.237500 F F F Li
0.337500 0.537500 0.337500 F F F Li
0.337500 0.537500 0.437500 F F F Li
0.337500 0.537500 0.537500 F F F Li
0.337500 0.537500 0.637500 F F F Li
0.337500 0.537500 0.737500 F F F Li
0.337500 0.537500 0.837500 F F F Li
0.337500 0.537500 0.937500 F F F Li
0.337500 0.637500 0.037500 F F F Li
0.337500 0.637500 0.137500 F F F Li
0.337500 0.637500 0.237500 F F F Li
0.337500 0.637500 0.337500 F F F Li
0.337500 0.637500 0.437500 F F F Li
0.337500 0.637500 0.537500 F F F Li
0.337500 0.637500 0.637500 F F F Li
0.337500 0.637500 0.737500 F F F Li
0.337500 0.637500 0.837500 F F F Li
0.337500 0.637500 0.937500 F F F Li
0.337500 0.737500 0.037500 F F F Li
0.337500 0.737500 0.137500 F F F Li
0.337500 0.737500 0.237500 F F F Li
0.337500 0.737500 0.337500 F F F Li
0.337500 0.737500 0.437500 F F F Li
0.337500 0.737500 0.537500 F F F Li
0.337500 0.737500 0.637500 F F F Li
0.337500 0.737500 0.737500 F F F Li
0.337500 0.737500 0.837500 F F F Li
0.337500 0.737500 0.937500 F F F Li
0.337500 0.837500 0.037500 F F F Li
0.337500 0.837500 0.137500 F F F Li
0.337500 0.837500 0.237500 F F F Li
0.337500 0.837500 0.337500 F F F Li
0.337500 0.837500 0.437500 F F F Li
0.337500 0.837500 0.537500 F F F Li
0.337500 0.837500 0.637500 F F F Li
0.337500 0.837500 0.737500 F F F Li
0.337500 0.837500 0.837500 F F F Li
0.337500 0.837500 0.937500 F F F Li
0.337500 0.937500 0.037500 F F F Li
0.337500 0.937500 0.137500 F F F Li
0.337500 0.937500 0.237500 F F F Li
0.337500 0.937500 0.337500 F F F Li
0.337500 0.937500 0.437500 F F F Li
0.337500 0.937500 0.537500 F F F Li
0.337500 0.937500 0.637500 F F F Li
0.337500 0.937500 0.737500 F F F Li
0.337500 0.937500 0.837500 F F F Li
0.337500 0.937500 0.937500 F F F Li
0.437500 0.037500 0.037500 F F F Li
0.437500 0.037500 0.137500 F F F Li
0.437500 0.037500 0.237500 F F F Li
0.437500 0.037500 0.337500 F F F Li
0.437500 0.037500 0.437500 F F F Li
0.437500 0.037500 0.537500 F F F Li
0.437500 0.037500 0.637500 F F F Li
0.437500 0.037500 0.737500 F F F Li
0.437500 0.037500 0.837500 F F F Li
0.437500 0.037500 0.937500 F F F Li
0.437500 0.137500 0.037500 F F F Li
0.437500 0.137500 0.137500 F F F Li
0.437500 0.137500 0.237500 F F F Li
0.437500 0.137500 0.337500 F F F Li
0.437500 0.137500 0.437500 F F F Li
0.437500 0.137500 0.537500 F F F Li
0.437500 0.137500 0.637500 F F F Li
0.437500 0.137500 0.737500 F F F Li
0.437500 0.137500 0.837500 F F F Li
0.437500 0.137500 0.937500 F F F Li
0.437500 0.237500 0.037500 F F F Li
0.437500 0.237500 0.137500 F F F Li
0.437500 0.237500 0.237500 F F F Li
0.437500 0.237500 0.337500 F F F Li
0.437500 0.237500 0.437500 F F F Li
0.437500 0.237500 0.537500 F F F Li
0.437500 0.237500 0.637500 F F F Li
0.437500 0.237500 0.737500 F F F Li
0.437500 0.237500 0.837500 F F F Li
0.437500 0.237500 0.937500 F F F Li
0.437500 0.337500 0.037500 F F F Li
0.437500 0.337500 0.137500 F F F Li
0.437500 0.337500 0.237500 F F F Li
0.437500 0.337500 0.337500 F F F Li
0.437500 0.337500 0.437500 F F F Li
0.437500 0.337500 0.537500 F F F Li
0.437500 0.337500 0.637500 F F F Li
0.437500 0.337500 0.737500 F F F Li
0.437500 0.337500 0.837500 F F F Li
0.437500 0.337500 0.937500 F F F Li
0.437500 0.437500 0.037500 F F F Li
0.437500 0.437500 0.137500 F F F Li
0.437500 0.437500 0.237500 F F F Li
0.437500 0.437500 0.337500 F F F Li
0.437500 0.437500 0.437500 F F F Li
0.437500 0.437500 0.537500 F F F Li
0.437500 0.437500 0.637500 F F F Li
0.437500 0.437500 0.737500 F F F Li
0.437500 0.437500 0.837500 F F F Li
0.437500 0.437500 0.937500 F F F Li
0.437500 0.537500 0.037500 F F F Li
0.437500 0.537500 0.137500 F F F Li
0.437500 0.537500 0.237500 F F F Li
0.437500 0.537500 0.337500 F F F Li
0.437500 0.537500 0.437500 F F F Li
0.437500 0.537500 0.537500 F F F Li
0.437500 0.537500 0.637500 F F F Li
0.437500 0.537500 0.737500 F F F Li
0.437500 0.537500 0.837500 F F F Li
0.437500 0.537500 0.937500 F F F Li
0.437500 0.637500 0.037500 F F F Li
0.437500 0.637500 0.137500 F F F Li
0.437500 0.637500 0.237500 F F F Li
0.437500 0.637500 0.337500 F F F Li
0.437500 0.637500 0.437500 F F F Li
0.437500 0.637500 0.537500 F F F Li
0.437500 0.637500 0.637500 F F F Li
0.437500 0.637500 0.737500 F F F Li
0.437500 0.637500 0.837500 F F F Li
0.437500 0.637500 0.937500 F F F Li
0.437500 0.737500 0.037500 F F F Li
0.437500 0.737500 0.137500 F F F Li
0.437500 0.737500 0.237500 F F F Li
0.437500 0.737500 0.337500 F F F Li
0.437500 0.737500 0.437500 F F F Li
0.437500 0.737500 0.537500 F F F Li
0.437500 0.737500 0.637500 F F F Li
0.437500 0.737500 0.737500 F F F Li
0.437500 0.737500 0.837500 F F F Li
0.437500 0.737500 0.937500 F F F Li
0.437500 0.837500 0.037500 F F F Li
0.437500 0.837500 0.137500 F F F Li
0.437500 0.837500 0.237500 F F F Li
0.437500 0.837500 0.337500 F F F Li
0.437500 0.837500 0.437500 F F F Li
0.437500 0.837500 0.537500 F F F Li
0.437500 0.837500 0.637500 F F F Li
0.437500 0.837500 0.737500 F F F Li
0.437500 0.837500 0.837500 F F F Li
0.437500 0.837500 0.937500 F F F Li
0.437500 0.937500 0.037500 F F F Li
0.437500 0.937500 0.137500 F F F Li
0.437500 0.937500 0.237500 F F F Li
0.437500 0.937500 0.337500 F F F Li
0.437500 0.937500 0.437500 F F F Li
0.437500 0.937500 0.537500 F F F Li
0.437500 0.937500 0.637500 F F F Li
0.437500 0.937500 0.737500 F F F Li
0.437500 0.937500 0.837500 F F F Li
0.437500 0.937500 0.937500 F F F Li
0.537500 0.037500 0.037500 F F F Li
0.537500 0.037500 0.137500 F F F Li
0.537500 0.037500 0.237500 F F F Li
0.537500 0.037500 0.337500 F F F Li
0.537500 0.037500 0.437500 F F F Li
0.537500 0.037500 0.537500 F F F Li
0.537500 0.037500 0.637500 F F F Li
0.537500 0.037500 0.737500 F F F Li
0.537500 0.037500 0.837500 F F F Li
0.537500 0.037500 0.937500 F F F Li
0.537500 0.137500 0.037500 F F F Li
0.537500 0.137500 0.137500 F F F Li
0.537500 0.137500 0.237500 F F F Li
0.537500 0.137500 0.337500 F F F Li
0.537500 0.137500 0.437500 F F F Li
0.537500 0.137500 0.537500 F F F Li
0.537500 0.137500 0.637500 F F F Li
0.537500 0.137500 0.737500 F F F Li
0.537500 0.137500 0.837500 F F F Li
0.537500 0.137500 0.937500 F F F Li
0.537500 0.237500 0.037500 F F F Li
0.537500 0.237500 0.137500 F F F Li
0.537500 0.237500 0.237500 F F F Li
0.537500 0.237500 0.337500 F F F Li
0.537500 0.237500 0.437500 F F F Li
0.537500 0.237500 0.537500 F F F Li
0.537500 0.237500 0.637500 F F F Li
0.537500 0.237500 0.737500 F F F Li
0.537500 0.237500 0.837500 F F F Li
0.537500 0.237500 0.937500 F F F Li
0.537500 0.337500 0.037500 F F F Li
0.537500 0.337500 0.137500 F F F Li
0.537500 0.337500 0.237500 F F F Li
0.537500 0.337500 0.337500 F F F Li
0.537500 0.337500 0.437500 F F F Li
0.537500 0.337500 0.537500 F F F Li
0.537500 0.337500 0.637500 F F F Li
0.537500 0.337500 0.737500 F F F Li
0.537500 0.337500 0.837500 F F F Li
0.537500 0.337500 0.937500 F F F Li
0.537500 0.437500 0.037500 F F F Li
0.537500 0.437500 0.137500 F F F Li
0.537500 0.437500 0.237500 F F F Li
0.537500 0.437500 0.337500 F F F Li
0.537500 0.437500 0.437500 F F F Li
0.537500 0.437500 0.537500 F F F Li
0.537500 0.437500 0.637500 F F F Li
0.537500 0.437500 0.737500 F F F Li
0.537500 0.437500 0.837500 F F F Li
0.537500 0.437500 0.937500 F F F Li
0.537500 0.537500 0.037500 F F F Li
0.537500 0.537500 0.137500 F F F Li
0.537500 0.537500 0.237500 F F F Li
0.537500 0.537500 0.337500 F F F Li
0.537500 0.537500 0.437500 F F F Li
0.537500 0.537500 0.537500 F F F Li
0.537500 0.537500 0.637500 F F F Li
0.537500 0.537500 0.737500 F F F Li
0.537500 0.537500 0.837500 F F F Li
0.537500 0.537500 0.937500 F F F Li
0.537500 0.637500 0.037500 F F F Li
0.537500 0.637500 0.137500 F F F Li
0.537500 0.637500 0.237500 F F F Li
0.537500 0.637500 0.337500 F F F Li
0.537500 0.637500 0.437500 F F F Li
0.537500 0.637500 0.537500 F F F Li
0.537500 0.637500 0.637500 F F F Li
0.537500 0.637500 0.737500 F F F Li
0.537500 0.637500 0.837500 F F F Li
0.537500 0.637500 0.937500 F F F Li
0.537500 0.737500 0.037500 F F F Li
0.537500 0.737500 0.137500 F F F Li
0.537500 0.737500 0.237500 F F F Li
0.537500 0.737500 0.337500 F F F Li
0.537500 0.737500 0.437500 F F F Li
0.537500 0.737500 0.537500 F F F Li
0.537500 0.737500 0.637500 F F F Li
0.537500 0.737500 0.737500 F F F Li
0.537500 0.737500 0.837500 F F F Li
0.537500 0.737500 0.937500 F F F Li
0.537500 0.837500 0.037500 F F F Li
0.537500 0.837500 0.137500 F F F Li
0.537500 0.837500 0.237500 F F F Li
0.537500 0.837500 0.337500 F F F Li
0.537500 0.837500 0.437500 F F F Li
0.537500 0.837500 0.537500 F F F Li
0.537500 0.837500 0.637500 F F F Li
0.537500 0.837500 0.737500 F F F Li
0.537500 0.837500 0.837500 F F F Li
0.537500 0.837500 0.937500 F F F Li
0.537500 0.937500 0.037500 F F F Li
0.537500 0.937500 0.137500 F F F Li
0.537500 0.937500 0.237500 F F F Li
0.537500 0.937500 0.337500 F F F Li
0.537500 0.937500 0.437500 F F F Li
0.537500 0.937500 0.537500 F F F Li
0.537500 0.937500 0.637500 F F F Li
0.537500 0.937500 0.737500 F F F Li
0.537500 0.937500 0.837500 F F F Li
0.537500 0.937500 0.937500 F F F Li
0.637500 0.037500 0.037500 F F F Li
0.637500 0.037500 0.137500 F F F Li
0.637500 0.037500 0.237500 F F F Li
0.637500 0.037500 0.337500 F F F Li
0.637500 0.037500 0.437500 F F F Li
0.637500 0.037500 0.537500 F F F Li
0.637500 0.037500 0.637500 F F F Li
0.637500 0.037500 0.737500 F F F Li
0.637500 0.037500 0.837500 F F F Li
0.637500 0.037500 0.937500 F F F Li
0.637500 0.137500 0.037500 F F F Li
0.637500 0.137500 0.137500 F F F Li
0.637500 0.137500 0.237500 F F F Li
0.637500 0.137500 0.337500 F F F Li
0.637500 0.137500 0.437500 F F F Li
0.637500 0.137500 0.537500 F F F Li
0.637500 0.137500 0.637500 F F F Li
0.637500 0.137500 0.737500 F F F Li
0.637500 0.137500 0.837500 F F F Li
0.637500 0.137500 0.937500 F F F Li
0.637500 0.237500 0.037500 F F F Li
0.637500 0.237500 0.137500 F F F Li
0.637500 0.237500 0.237500 F F F Li
0.637500 0.237500 0.337500 F F F Li
0.637500 0.237500 0.437500 F F F Li
0.637500 0.237500 0.537500 F F F Li
0.637500 0.237500 0.637500 F F F Li
0.637500 0.237500 0.737500 F F F Li
0.637500 0.237500 0.837500 F F F Li
0.637500 0.237500 0.937500 F F F Li
0.637500 0.337500 0.037500 F F F Li
0.637500 0.337500 0.137500 F F F Li
0.637500 0.337500 0.237500 F F F Li
0.637500 0.337500 0.337500 F F F Li
0.637500 0.337500 0.437500 F F F Li
0.637500 0.337500 0.537500 F F F Li
0.637500 0.337500 0.637500 F F F Li
0.637500 0.337500 0.737500 F F F Li
0.637500 0.337500 0.837500 F F F Li
0.637500 0.337500 0.937500 F F F Li
0.637500 0.437500 0.037500 F F F Li
0.637500 0.437500 0.137500 F F F Li
0.637500 0.437500 0.237500 F F F Li
0.637500 0.437500 0.337500 F F F Li
0.637500 0.437500 0.437500 F F F Li
0.637500 0.437500 0.537500 F F F Li
0.637500 0.437500 0.637500 F F F Li
0.637500 0.437500 0.737500 F F F Li
0.637500 0.437500 0.837500 F F F Li
0.637500 0.437500 0.937500 F F F Li
0.637500 0.537500 0.037500 F F F Li
0.637500 0.537500 0.137500 F F F Li
0.637500 0.537500 0.237500 F F F Li
0.637500 0.537500 0.337500 F F F Li
0.637500 0.537500 0.437500 F F F Li
0.637500 0.537500 0.537500 F F F Li
0.637500 0.537500 0.637500 F F F Li
0.637500 0.537500 0.737500 F F F Li
0.637500 0.537500 0.837500 F F F Li
0.637500 0.537500 0.937500 F F F Li
0.637500 0.637500 0.037500 F F F Li
0.637500 0.637500 0.137500 F F F Li
0.637500 0.637500 0.237500 F F F Li
0.637500 0.637500 0.337500 F F F Li
0.637500 0.637500 0.437500 F F F Li
0.637500 0.637500 0.537500 F F F Li
0.637500 0.637500 0.637500 F F F Li
0.637500 0.637500 0.737500 F F F Li
0.637500 0.637500 0.837500 F F F Li
0.637500 0.637500 0.937500 F F F Li
0.637500 0.737500 0.037500 F F F Li
0.637500 0.737500 0.137500 F F F Li
0.637500 0.737500 0.237500 F F F Li
0.637500 0.737500 0.337500 F F F Li
0.637500 0.737500 0.437500 F F F Li
0.637500 0.737500 0.537500 F F F Li
0.637500 0.737500 0.637500 F F F Li
0.637500 0.737500 0.737500 F F F Li
0.637500 0.737500 0.837500 F F F Li
0.637500 0.737500 0.937500 F F F Li
0.637500 0.837500 0.037500 F F F Li
0.637500 0.837500 0.137500 F F F Li
0.637500 0.837500 0.237500 F F F Li
0.637500 0.837500 0.337500 F F F Li
0.637500 0.837500 0.437500 F F F Li
0.637500 0.837500 0.537500 F F F Li
0.637500 0.837500 0.637500 F F F Li
0.637500 0.837500 0.737500 F F F Li
0.637500 0.837500 0.837500 F F F Li
0.637500 0.837500 0.937500 F F F Li
0.637500 0.937500 0.037500 F F F Li
0.637500 0.937500 0.137500 F F F Li
0.637500 0.937500 0.237500 F F F Li
0.637500 0.937500 0.337500 F F F Li
0.637500 0.937500 0.437500 F F F Li
0.637500 0.937500 0.537500 F F F Li
0.637500 0.937500 0.637500 F F F Li
0.637500 0.937500 0.737500 F F F Li
0.637500 0.937500 0.837500 F F F Li
0.637500 0.937500 0.937500 F F F Li
0.737500 0.037500 0.037500 F F F Li
0.737500 0.037500 0.137500 F F F Li
0.737500 0.037500 0.237500 F F F Li
0.737500 0.037500 0.337500 F F F Li
0.737500 0.037500 0.437500 F F F Li
0.737500 0.037500 0.537500 F F F Li
0.737500 0.037500 0.637500 F F F Li
0.737500 0.037500 0.737500 F F F Li
0.737500 0.037500 0.837500 F F F Li
0.737500 0.037500 0.937500 F F F Li
0.737500 0.137500 0.037500 F F F Li
0.737500 0.137500 0.137500 F F F Li
0.737500 0.137500 0.237500 F F F Li
0.737500 0.137500 0.337500 F F F Li
0.737500 0.137500 0.437500 F F F Li
0.737500 0.137500 0.537500 F F F Li
0.737500 0.137500 0.637500 F F F Li
0.737500 0.137500 0.737500 F F F Li
0.737500 0.137500 0.837500 F F F Li
0.737500 0.137500 0.937500 F F F Li
0.737500 0.237500 0.037500 F F F Li
0.737500 0.237500 0.137500 F F F Li
0.737500 0.237500 0.237500 F F F Li
0.737500 0.237500 0.337500 F F F Li
0.737500 0.237500 0.437500 F F F Li
0.737500 0.237500 0.537500 F F F Li
0.737500 0.237500 0.637500 F F F Li
0.737500 0.237500 0.737500 F F F Li
0.737500 0.237500 0.837500 F F F Li
0.737500 0.237500 0.937500 F F F Li
0.737500 0.337500 0.037500 F F F Li
0.737500 0.337500 0.137500 F F F Li
0.737500 0.337500 0.237500 F F F Li
0.737500 0.337500 0.337500 F F F Li
0.737500 0.337500 0.437500 F F F Li
0.737500 0.337500 0.537500 F F F Li
0.737500 0.337500 0.637500 F F F Li
0.737500 0.337500 0.737500 F F F Li
0.737500 0.337500 0.837500 F F F Li
0.737500 0.337500 0.937500 F F F Li
0.737500 0.437500 0.037500 F F F Li
0.737500 0.437500 0.137500 F F F Li
0.737500 0.437500 0.237500 F F F Li
0.737500 0.437500 0.337500 F F F Li
0.737500 0.437500 0.437500 F F F Li
0.737500 0.437500 0.537500 F F F Li
0.737500 0.437500 0.637500 F F F Li
0.737500 0.437500 0.737500 F F F Li
0.737500 0.437500 0.837500 F F F Li
0.737500 0.437500 0.937500 F F F Li
0.737500 0.537500 0.037500 F F F Li
0.737500 0.537500 0.137500 F F F Li
0.737500 0.537500 0.237500 F F F Li
0.737500 0.537500 0.337500 F F F Li
0.737500 0.537500 0.437500 F F F Li
0.737500 0.537500 0.537500 F F F Li
0.737500 0.537500 0.637500 F F F Li
0.737500 0.537500 0.737500 F F F Li
0.737500 0.537500 0.837500 F F F Li
0.737500 0.537500 0.937500 F F F Li
0.737500 0.637500 0.037500 F F F Li
0.737500 0.637500 0.137500 F F F Li
0.737500 0.637500 0.237500 F F F Li
0.737500 0.637500 0.337500 F F F Li
0.737500 0.637500 0.437500 F F F Li
0.737500 0.637500 0.537500 F F F Li
0.737500 0.637500 0.637500 F F F Li
0.737500 0.637500 0.737500 F F F Li
0.737500 0.637500 0.837500 F F F Li
0.737500 0.637500 0.937500 F F F Li
0.737500 0.737500 0.037500 F F F Li
0.737500 0.737500 0.137500 F F F Li
0.737500 0.737500 0.237500 F F F Li
0.737500 0.737500 0.337500 F F F Li
0.737500 0.737500 0.437500 F F F Li
0.737500 0.737500 0.537500 F F F Li
0.737500 0.737500 0.637500 F F F Li
0.737500 0.737500 0.737500 F F F Li
0.737500 0.737500 0.837500 F F F Li
0.737500 0.737500 0.937500 F F F Li
0.737500 0.837500 0.037500 F F F Li
0.737500 0.837500 0.137500 F F F Li
0.737500 0.837500 0.237500 F F F Li
0.737500 0.837500 0.337500 F F F Li
0.737500 0.837500 0.437500 F F F Li
0.737500 0.837500 0.537500 F F F Li
0.737500 0.837500 0.637500 F F F Li
0.737500 0.837500 0.737500 F F F Li
0.737500 0.837500 0.837500 F F F Li
0.737500 0.837500 0.937500 F F F Li
0.737500 0.937500 0.037500 F F F Li
0.737500 0.937500 0.137500 F F F Li
0.737500 0.937500 0.237500 F F F Li
0.737500 0.937500 0.337500 F F F Li
0.737500 0.937500 0.437500 F F F Li
0.737500 0.937500 0.537500 F F F Li
0.737500 0.937500 0.637500 F F F Li
0.737500 0.937500 0.737500 F F F Li
0.737500 0.937500 0.837500 F F F Li
0.737500 0.937500 0.937500 F F F Li
0.837500 0.037500 0.037500 F F F Li
0.837500 0.037500 0.137500 F F F Li
0.837500 0.037500 0.237500 F F F Li
0.837500 0.037500 0.337500 F F F Li
0.837500 0.037500 0.437500 F F F Li
0.837500 0.037500 0.537500 F F F Li
0.837500 0.037500 0.637500 F F F Li
0.837500 0.037500 0.737500 F F F Li
0.837500 0.037500 0.837500 F F F Li
0.837500 0.037500 0.937500 F F F Li
0.837500 0.137500 0.037500 F F F Li
0.837500 0.137500 0.137500 F F F Li
0.837500 0.137500 0.237500 F F F Li
0.837500 0.137500 0.337500 F F F Li
0.837500 0.137500 0.437500 F F F Li
0.837500 0.137500 0.537500 F F F Li
0.837500 0.137500 0.637500 F F F Li
0.837500 0.137500 0.737500 F F F Li
0.837500 0.137500 0.837500 F F F Li
0.837500 0.137500 0.937500 F F F Li
0.837500 0.237500 0.037500 F F F Li
0.837500 0.237500 0.137500 F F F Li
0.837500 0.237500 0.237500 F F F Li
0.837500 0.237500 0.337500 F F F Li
0.837500 0.237500 0.437500 F F F Li
0.837500 0.237500 0.537500 F F F Li
0.837500 0.237500 0.637500 F F F Li
0.837500 0.237500 0.737500 F F F Li
0.837500 0.237500 0.837500 F F F Li