Li27000
1.0
121.200000 0.000000 0.000000
0.000000 121.200000 0.000000
0.000000 0.000000 121.200000
Li
27000
Selective dynamics
direct
0.011667 0.011667 0.011667 F F F Li
0.011667 0.011667 0.078333 F F F Li
0.011667 0.011667 0.145000 F F F Li
0.011667 0.011667 0.211667 F F F Li
0.011667 0.011667 0.278333 F F F Li
0.011667 0.011667 0.345000 F F F Li
0.011667 0.011667 0.411667 F F F Li
0.011667 0.011667 0.478333 F F F Li
0.011667 0.011667 0.545000 F F F Li
0.011667 0.011667 0.611667 F F F Li
0.011667 0.011667 0.678333 F F F Li
0.011667 0.011667 0.745000 F F F Li
0.011667 0.011667 0.811667 F F F Li
0.011667 0.011667 0.878333 F F F Li
0.011667 0.011667 0.945000 F F F Li
0.011667 0.078333 0.011667 F F F Li
0.011667 0.078333 0.078333 F F F Li
0.011667 0.078333 0.145000 F F F Li
0.011667 0.078333 0.211667 F F F Li
0.011667 0.078333 0.278333 F F F Li
0.011667 0.078333 0.345000 F F F Li
0.011667 0.078333 0.411667 F F F Li
0.011667 0.078333 0.478333 F F F Li
0.011667 0.078333 0.545000 F F F Li
0.011667 0.078333 0.611667 F F F Li
0.011667 0.078333 0.678333 F F F Li
0.011667 0.078333 0.745000 F F F Li
0.011667 0.078333 0.811667 F F F Li
0.011667 0.078333 0.878333 F F F Li
0.011667 0.078333 0.945000 F F F Li
0.011667 0.145000 0.011667 F F F Li
0.011667 0.145000 0.078333 F F F Li
0.011667 0.145000 0.145000 F F F Li
0.011667 0.145000 0.211667 F F F Li
0.011667 0.145000 0.278333 F F F Li
0.011667 0.145000 0.345000 F F F Li
0.011667 0.145000 0.411667 F F F Li
0.011667 0.145000 0.478333 F F F Li
0.011667 0.145000 0.545000 F F F Li
0.011667 0.145000 0.611667 F F F Li
0.011667 0.145000 0.678333 F F F Li
0.011667 0.145000 0.745000 F F F Li
0.011667 0.145000 0.811667 F F F Li
0.011667 0.145000 0.878333 F F F Li
0.011667 0.145000 0.945000 F F F Li
0.011667 0.211667 0.011667 F F F Li
0.011667 0.211667 0.078333 F F F Li
0.011667 0.211667 0.145000 F F F Li
0.011667 0.211667 0.211667 F F F Li
0.011667 0.211667 0.278333 F F F Li
0.011667 0.211667 0.345000 F F F Li
0.011667 0.211667 0.411667 F F F Li
0.011667 0.211667 0.478333 F F F Li
0.011667 0.211667 0.545000 F F F Li
0.011667 0.211667 0.611667 F F F Li
0.011667 0.211667 0.678333 F F F Li
0.011667 0.211667 0.745000 F F F Li
0.011667 0.211667 0.811667 F F F Li
0.011667 0.211667 0.878333 F F F Li
0.011667 0.211667 0.945000 F F F Li
0.011667 0.278333 0.011667 F F F Li
0.011667 0.278333 0.078333 F F F Li
0.011667 0.278333 0.145000 F F F Li
0.011667 0.278333 0.211667 F F F Li
0.011667 0.278333 0.278333 F F F Li
0.011667 0.278333 0.345000 F F F Li
0.011667 0.278333 0.411667 F F F Li
0.011667 0.278333 0.478333 F F F Li
0.011667 0.278333 0.545000 F F F Li
0.011667 0.278333 0.611667 F F F Li
0.011667 0.278333 0.678333 F F F Li
0.011667 0.278333 0.745000 F F F Li
0.011667 0.278333 0.811667 F F F Li
0.011667 0.278333 0.878333 F F F Li
0.011667 0.278333 0.945000 F F F Li
0.011667 0.345000 0.011667 F F F Li
0.011667 0.345000 0.078333 F F F Li
0.011667 0.345000 0.145000 F F F Li
0.011667 0.345000 0.211667 F F F Li
0.011667 0.345000 0.278333 F F F Li
0.011667 0.345000 0.345000 F F F Li
0.011667 0.345000 0.411667 F F F Li
0.011667 0.345000 0.478333 F F F Li
0.011667 0.345000 0.545000 F F F Li
0.011667 0.345000 0.611667 F F F Li
0.011667 0.345000 0.678333 F F F Li
0.011667 0.345000 0.745000 F F F Li
0.011667 0.345000 0.811667 F F F Li
0.011667 0.345000 0.878333 F F F Li
0.011667 0.345000 0.945000 F F F Li
0.011667 0.411667 0.011667 F F F Li
0.011667 0.411667 0.078333 F F F Li
0.011667 0.411667 0.145000 F F F Li
0.011667 0.411667 0.211667 F F F Li
0.011667 0.411667 0.278333 F F F Li
0.011667 0.411667 0.345000 F F F Li
0.011667 0.411667 0.411667 F F F Li
0.011667 0.411667 0.478333 F F F Li
0.011667 0.411667 0.545000 F F F Li
0.011667 0.411667 0.611667 F F F Li
0.011667 0.411667 0.678333 F F F Li
0.011667 0.411667 0.745000 F F F Li
0.011667 0.411667 0.811667 F F F Li
0.011667 0.411667 0.878333 F F F Li
0.011667 0.411667 0.945000 F F F Li
0.011667 0.478333 0.011667 F F F Li
0.011667 0.478333 0.078333 F F F Li
0.011667 0.478333 0.145000 F F F Li
0.011667 0.478333 0.211667 F F F Li
0.011667 0.478333 0.278333 F F F Li
0.011667 0.478333 0.345000 F F F Li
0.011667 0.478333 0.411667 F F F Li
0.011667 0.478333 0.478333 F F F Li
0.011667 0.478333 0.545000 F F F Li
0.011667 0.478333 0.611667 F F F Li
0.011667 0.478333 0.678333 F F F Li
0.011667 0.478333 0.745000 F F F Li
0.011667 0.478333 0.811667 F F F Li
0.011667 0.478333 0.878333 F F F Li
0.011667 0.478333 0.945000 F F F Li
0.011667 0.545000 0.011667 F F F Li
0.011667 0.545000 0.078333 F F F Li
0.011667 0.545000 0.145000 F F F Li
0.011667 0.545000 0.211667 F F F Li
0.011667 0.545000 0.278333 F F F Li
0.011667 0.545000 0.345000 F F F Li
0.011667 0.545000 0.411667 F F F Li
0.011667 0.545000 0.478333 F F F Li
0.011667 0.545000 0.545000 F F F Li
0.011667 0.545000 0.611667 F F F Li
0.011667 0.545000 0.678333 F F F Li
0.011667 0.545000 0.745000 F F F Li
0.011667 0.545000 0.811667 F F F Li
0.011667 0.545000 0.878333 F F F Li
0.011667 0.545000 0.945000 F F F Li
0.011667 0.611667 0.011667 F F F Li
0.011667 0.611667 0.078333 F F F Li
0.011667 0.611667 0.145000 F F F Li
0.011667 0.611667 0.211667 F F F Li
0.011667 0.611667 0.278333 F F F Li
0.011667 0.611667 0.345000 F F F Li
0.011667 0.611667 0.411667 F F F Li
0.011667 0.611667 0.478333 F F F Li
0.011667 0.611667 0.545000 F F F Li
0.011667 0.611667 0.611667 F F F Li
0.011667 0.611667 0.678333 F F F Li
0.011667 0.611667 0.745000 F F F Li
0.011667 0.611667 0.811667 F F F Li
0.011667 0.611667 0.878333 F F F Li
0.011667 0.611667 0.945000 F F F Li
0.011667 0.678333 0.011667 F F F Li
0.011667 0.678333 0.078333 F F F Li
0.011667 0.678333 0.145000 F F F Li
0.011667 0.678333 0.211667 F F F Li
0.011667 0.678333 0.278333 F F F Li
0.011667 0.678333 0.345000 F F F Li
0.011667 0.678333 0.411667 F F F Li
0.011667 0.678333 0.478333 F F F Li
0.011667 0.678333 0.545000 F F F Li
0.011667 0.678333 0.611667 F F F Li
0.011667 0.678333 0.678333 F F F Li
0.011667 0.678333 0.745000 F F F Li
0.011667 0.678333 0.811667 F F F Li
0.011667 0.678333 0.878333 F F F Li
0.011667 0.678333 0.945000 F F F Li
0.011667 0.745000 0.011667 F F F Li
0.011667 0.745000 0.078333 F F F Li
0.011667 0.745000 0.145000 F F F Li
0.011667 0.745000 0.211667 F F F Li
0.011667 0.745000 0.278333 F F F Li
0.011667 0.745000 0.345000 F F F Li
0.011667 0.745000 0.411667 F F F Li
0.011667 0.745000 0.478333 F F F Li
0.011667 0.745000 0.545000 F F F Li
0.011667 0.745000 0.611667 F F F Li
0.011667 0.745000 0.678333 F F F Li
0.011667 0.745000 0.745000 F F F Li
0.011667 0.745000 0.811667 F F F Li
0.011667 0.745000 0.878333 F F F Li
0.011667 0.745000 0.945000 F F F Li
0.011667 0.811667 0.011667 F F F Li
0.011667 0.811667 0.078333 F F F Li
0.011667 0.811667 0.145000 F F F Li
0.011667 0.811667 0.211667 F F F Li
0.011667 0.811667 0.278333 F F F Li
0.011667 0.811667 0.345000 F F F Li
0.011667 0.811667 0.411667 F F F Li
0.011667 0.811667 0.478333 F F F Li
0.011667 0.811667 0.545000 F F F Li
0.011667 0.811667 0.611667 F F F Li
0.011667 0.811667 0.678333 F F F Li
0.011667 0.811667 0.745000 F F F Li
0.011667 0.811667 0.811667 F F F Li
0.011667 0.811667 0.878333 F F F Li
0.011667 0.811667 0.945000 F F F Li
0.011667 0.878333 0.011667 F F F Li
0.011667 0.878333 0.078333 F F F Li
0.011667 0.878333 0.145000 F F F Li
0.011667 0.878333 0.211667 F F F Li
0.011667 0.878333 0.278333 F F F Li
0.011667 0.878333 0.345000 F F F Li
0.011667 0.878333 0.411667 F F F Li
0.011667 0.878333 0.478333 F F F Li
0.011667 0.878333 0.545000 F F F Li
0.011667 0.878333 0.611667 F F F Li
0.011667 0.878333 0.678333 F F F Li
0.011667 0.878333 0.745000 F F F Li
0.011667 0.878333 0.811667 F F F Li
0.011667 0.878333 0.878333 F F F Li
0.011667 0.878333 0.945000 F F F Li
0.011667 0.945000 0.011667 F F F Li
0.011667 0.945000 0.078333 F F F Li
0.011667 0.945000 0.145000 F F F Li
0.011667 0.945000 0.211667 F F F Li
0.011667 0.945000 0.278333 F F F Li
0.011667 0.945000 0.345000 F F F Li
0.011667 0.945000 0.411667 F F F Li
0.011667 0.945000 0.478333 F F F Li
0.011667 0.945000 0.545000 F F F Li
0.011667 0.945000 0.611667 F F F Li
0.011667 0.945000 0.678333 F F F Li
0.011667 0.945000 0.745000 F F F Li
0.011667 0.945000 0.811667 F F F Li
0.011667 0.945000 0.878333 F F F Li
0.011667 0.945000 0.945000 F F F Li
0.078333 0.011667 0.011667 F F F Li
0.078333 0.011667 0.078333 F F F Li
0.078333 0.011667 0.145000 F F F Li
0.078333 0.011667 0.211667 F F F Li
0.078333 0.011667 0.278333 F F F Li
0.078333 0.011667 0.345000 F F F Li
0.078333 0.011667 0.411667 F F F Li
0.078333 0.011667 0.478333 F F F Li
0.078333 0.011667 0.545000 F F F Li
0.078333 0.011667 0.611667 F F F Li
0.078333 0.011667 0.678333 F F F Li
0.078333 0.011667 0.745000 F F F Li
0.078333 0.011667 0.811667 F F F Li
0.078333 0.011667 0.878333 F F F Li
0.078333 0.011667 0.945000 F F F Li
0.078333 0.078333 0.011667 F F F Li
0.078333 0.078333 0.078333 F F F Li
0.078333 0.078333 0.145000 F F F Li
0.078333 0.078333 0.211667 F F F Li
0.078333 0.078333 0.278333 F F F Li
0.078333 0.078333 0.345000 F F F Li
0.078333 0.078333 0.411667 F F F Li
0.078333 0.078333 0.478333 F F F Li
0.078333 0.078333 0.545000 F F F Li
0.078333 0.078333 0.611667 F F F Li
0.078333 0.078333 0.678333 F F F Li
0.078333 0.078333 0.745000 F F F Li
0.078333 0.078333 0.811667 F F F Li
0.078333 0.078333 0.878333 F F F Li
0.078333 0.078333 0.945000 F F F Li
0.078333 0.145000 0.011667 F F F Li
0.078333 0.145000 0.078333 F F F Li
0.078333 0.145000 0.145000 F F F Li
0.078333 0.145000 0.211667 F F F Li
0.078333 0.145000 0.278333 F F F Li
0.078333 0.145000 0.345000 F F F Li
0.078333 0.145000 0.411667 F F F Li
0.078333 0.145000 0.478333 F F F Li
0.078333 0.145000 0.545000 F F F Li
0.078333 0.145000 0.611667 F F F Li
0.078333 0.145000 0.678333 F F F Li
0.078333 0.145000 0.745000 F F F Li
0.078333 0.145000 0.811667 F F F Li
0.078333 0.145000 0.878333 F F F Li
0.078333 0.145000 0.945000 F F F Li
0.078333 0.211667 0.011667 F F F Li
0.078333 0.211667 0.078333 F F F Li
0.078333 0.211667 0.145000 F F F Li
0.078333 0.211667 0.211667 F F F Li
0.078333 0.211667 0.278333 F F F Li
0.078333 0.211667 0.345000 F F F Li
0.078333 0.211667 0.411667 F F F Li
0.078333 0.211667 0.478333 F F F Li
0.078333 0.211667 0.545000 F F F Li
0.078333 0.211667 0.611667 F F F Li
0.078333 0.211667 0.678333 F F F Li
0.078333 0.211667 0.745000 F F F Li
0.078333 0.211667 0.811667 F F F Li
0.078333 0.211667 0.878333 F F F Li
0.078333 0.211667 0.945000 F F F Li
0.078333 0.278333 0.011667 F F F Li
0.078333 0.278333 0.078333 F F F Li
0.078333 0.278333 0.145000 F F F Li
0.078333 0.278333 0.211667 F F F Li
0.078333 0.278333 0.278333 F F F Li
0.078333 0.278333 0.345000 F F F Li
0.078333 0.278333 0.411667 F F F Li
0.078333 0.278333 0.478333 F F F Li
0.078333 0.278333 0.545000 F F F Li
0.078333 0.278333 0.611667 F F F Li
0.078333 0.278333 0.678333 F F F Li
0.078333 0.278333 0.745000 F F F Li
0.078333 0.278333 0.811667 F F F Li
0.078333 0.278333 0.878333 F F F Li
0.078333 0.278333 0.945000 F F F Li
0.078333 0.345000 0.011667 F F F Li
0.078333 0.345000 0.078333 F F F Li
0.078333 0.345000 0.145000 F F F Li
0.078333 0.345000 0.211667 F F F Li
0.078333 0.345000 0.278333 F F F Li
0.078333 0.345000 0.345000 F F F Li
0.078333 0.345000 0.411667 F F F Li
0.078333 0.345000 0.478333 F F F Li
0.078333 0.345000 0.545000 F F F Li
0.078333 0.345000 0.611667 F F F Li
0.078333 0.345000 0.678333 F F F Li
0.078333 0.345000 0.745000 F F F Li
0.078333 0.345000 0.811667 F F F Li
0.078333 0.345000 0.878333 F F F Li
0.078333 0.345000 0.945000 F F F Li
0.078333 0.411667 0.011667 F F F Li
0.078333 0.411667 0.078333 F F F Li
0.078333 0.411667 0.145000 F F F Li
0.078333 0.411667 0.211667 F F F Li
0.078333 0.411667 0.278333 F F F Li
0.078333 0.411667 0.345000 F F F Li
0.078333 0.411667 0.411667 F F F Li
0.078333 0.411667 0.478333 F F F Li
0.078333 0.411667 0.545000 F F F Li
0.078333 0.411667 0.611667 F F F Li
0.078333 0.411667 0.678333 F F F Li
0.078333 0.411667 0.745000 F F F Li
0.078333 0.411667 0.811667 F F F Li
0.078333 0.411667 0.878333 F F F Li
0.078333 0.411667 0.945000 F F F Li
0.078333 0.478333 0.011667 F F F Li
0.078333 0.478333 0.078333 F F F Li
0.078333 0.478333 0.145000 F F F Li
0.078333 0.478333 0.211667 F F F Li
0.078333 0.478333 0.278333 F F F Li
0.078333 0.478333 0.345000 F F F Li
0.078333 0.478333 0.411667 F F F Li
0.078333 0.478333 0.478333 F F F Li
0.078333 0.478333 0.545000 F F F Li
0.078333 0.478333 0.611667 F F F Li
0.078333 0.478333 0.678333 F F F Li
0.078333 0.478333 0.745000 F F F Li
0.078333 0.478333 0.811667 F F F Li
0.078333 0.478333 0.878333 F F F Li
0.078333 0.478333 0.945000 F F F Li
0.078333 0.545000 0.011667 F F F Li
0.078333 0.545000 0.078333 F F F Li
0.078333 0.545000 0.145000 F F F Li
0.078333 0.545000 0.211667 F F F Li
0.078333 0.545000 0.278333 F F F Li
0.078333 0.545000 0.345000 F F F Li
0.078333 0.545000 0.411667 F F F Li
0.078333 0.545000 0.478333 F F F Li
0.078333 0.545000 0.545000 F F F Li
0.078333 0.545000 0.611667 F F F Li
0.078333 0.545000 0.678333 F F F Li
0.078333 0.545000 0.745000 F F F Li
0.078333 0.545000 0.811667 F F F Li
0.078333 0.545000 0.878333 F F F Li
0.078333 0.545000 0.945000 F F F Li
0.078333 0.611667 0.011667 F F F Li
0.078333 0.611667 0.078333 F F F Li
0.078333 0.611667 0.145000 F F F Li
0.078333 0.611667 0.211667 F F F Li
0.078333 0.611667 0.278333 F F F Li
0.078333 0.611667 0.345000 F F F Li
0.078333 0.611667 0.411667 F F F Li
0.078333 0.611667 0.478333 F F F Li
0.078333 0.611667 0.545000 F F F Li
0.078333 0.611667 0.611667 F F F Li
0.078333 0.611667 0.678333 F F F Li
0.078333 0.611667 0.745000 F F F Li
0.078333 0.611667 0.811667 F F F Li
0.078333 0.611667 0.878333 F F F Li
0.078333 0.611667 0.945000 F F F Li
0.078333 0.678333 0.011667 F F F Li
0.078333 0.678333 0.078333 F F F Li
0.078333 0.678333 0.145000 F F F Li
0.078333 0.678333 0.211667 F F F Li
0.078333 0.678333 0.278333 F F F Li
0.078333 0.678333 0.345000 F F F Li
0.078333 0.678333 0.411667 F F F Li
0.078333 0.678333 0.478333 F F F Li
0.078333 0.678333 0.545000 F F F Li
0.078333 0.678333 0.611667 F F F Li
0.078333 0.678333 0.678333 F F F Li
0.078333 0.678333 0.745000 F F F Li
0.078333 0.678333 0.811667 F F F Li
0.078333 0.678333 0.878333 F F F Li
0.078333 0.678333 0.945000 F F F Li
0.078333 0.745000 0.011667 F F F Li
0.078333 0.745000 0.078333 F F F Li
0.078333 0.745000 0.145000 F F F Li
0.078333 0.745000 0.211667 F F F Li
0.078333 0.745000 0.278333 F F F Li
0.078333 0.745000 0.345000 F F F Li
0.078333 0.745000 0.411667 F F F Li
0.078333 0.745000 0.478333 F F F Li
0.078333 0.745000 0.545000 F F F Li
0.078333 0.745000 0.611667 F F F Li
0.078333 0.745000 0.678333 F F F Li
0.078333 0.745000 0.745000 F F F Li
0.078333 0.745000 0.811667 F F F Li
0.078333 0.745000 0.878333 F F F Li
0.078333 0.745000 0.945000 F F F Li
0.078333 0.811667 0.011667 F F F Li
0.078333 0.811667 0.078333 F F F Li
0.078333 0.811667 0.145000 F F F Li
0.078333 0.811667 0.211667 F F F Li
0.078333 0.811667 0.278333 F F F Li
0.078333 0.811667 0.345000 F F F Li
0.078333 0.811667 0.411667 F F F Li
0.078333 0.811667 0.478333 F F F Li
0.078333 0.811667 0.545000 F F F Li
0.078333 0.811667 0.611667 F F F Li
0.078333 0.811667 0.678333 F F F Li
0.078333 0.811667 0.745000 F F F Li
0.078333 0.811667 0.811667 F F F Li
0.078333 0.811667 0.878333 F F F Li
0.078333 0.811667 0.945000 F F F Li
0.078333 0.878333 0.011667 F F F Li
0.078333 0.878333 0.078333 F F F Li
0.078333 0.878333 0.145000 F F F Li
0.078333 0.878333 0.211667 F F F Li
0.078333 0.878333 0.278333 F F F Li
0.078333 0.878333 0.345000 F F F Li
0.078333 0.878333 0.411667 F F F Li
0.078333 0.878333 0.478333 F F F Li
0.078333 0.878333 0.545000 F F F Li
0.078333 0.878333 0.611667 F F F Li
0.078333 0.878333 0.678333 F F F Li
0.078333 0.878333 0.745000 F F F Li
0.078333 0.878333 0.811667 F F F Li
0.078333 0.878333 0.878333 F F F Li
0.078333 0.878333 0.945000 F F F Li
0.078333 0.945000 0.011667 F F F Li
0.078333 0.945000 0.078333 F F F Li
0.078333 0.945000 0.145000 F F F Li
0.078333 0.945000 0.211667 F F F Li
0.078333 0.945000 0.278333 F F F Li
0.078333 0.945000 0.345000 F F F Li
0.078333 0.945000 0.411667 F F F Li
0.078333 0.945000 0.478333 F F F Li
0.078333 0.945000 0.545000 F F F Li
0.078333 0.945000 0.611667 F F F Li
0.078333 0.945000 0.678333 F F F Li
0.078333 0.945000 0.745000 F F F Li
0.078333 0.945000 0.811667 F F F Li
0.078333 0.945000 0.878333 F F F Li
0.078333 0.945000 0.945000 F F F Li
0.145000 0.011667 0.011667 F F F Li
0.145000 0.011667 0.078333 F F F Li
0.145000 0.011667 0.145000 F F F Li
0.145000 0.011667 0.211667 F F F Li
0.145000 0.011667 0.278333 F F F Li
0.145000 0.011667 0.345000 F F F Li
0.145000 0.011667 0.411667 F F F Li
0.145000 0.011667 0.478333 F F F Li
0.145000 0.011667 0.545000 F F F Li
0.145000 0.011667 0.611667 F F F Li
0.145000 0.011667 0.678333 F F F Li
0.145000 0.011667 0.745000 F F F Li
0.145000 0.011667 0.811667 F F F Li
0.145000 0.011667 0.878333 F F F Li
0.145000 0.011667 0.945000 F F F Li
0.145000 0.078333 0.011667 F F F Li
0.145000 0.078333 0.078333 F F F Li
0.145000 0.078333 0.145000 F F F Li
0.145000 0.078333 0.211667 F F F Li
0.145000 0.078333 0.278333 F F F Li
0.145000 0.078333 0.345000 F F F Li
0.145000 0.078333 0.411667 F F F Li
0.145000 0.078333 0.478333 F F F Li
0.145000 0.078333 0.545000 F F F Li
0.145000 0.078333 0.611667 F F F Li
0.145000 0.078333 0.678333 F F F Li
0.145000 0.078333 0.745000 F F F Li
0.145000 0.078333 0.811667 F F F Li
0.145000 0.078333 0.878333 F F F Li
0.145000 0.078333 0.945000 F F F Li
0.145000 0.145000 0.011667 F F F Li
0.145000 0.145000 0.078333 F F F Li
0.145000 0.145000 0.145000 F F F Li
0.145000 0.145000 0.211667 F F F Li
0.145000 0.145000 0.278333 F F F Li
0.145000 0.145000 0.345000 F F F Li
0.145000 0.145000 0.411667 F F F Li
0.145000 0.145000 0.478333 F F F Li
0.145000 0.145000 0.545000 F F F Li
0.145000 0.145000 0.611667 F F F Li
0.145000 0.145000 0.678333 F F F Li
0.145000 0.145000 0.745000 F F F Li
0.145000 0.145000 0.811667 F F F Li
0.145000 0.145000 0.878333 F F F Li
0.145000 0.145000 0.945000 F F F Li
0.145000 0.211667 0.011667 F F F Li
0.145000 0.211667 0.078333 F F F Li
0.145000 0.211667 0.145000 F F F Li
0.145000 0.211667 0.211667 F F F Li
0.145000 0.211667 0.278333 F F F Li
0.145000 0.211667 0.345000 F F F Li
0.145000 0.211667 0.411667 F F F Li
0.145000 0.211667 0.478333 F F F Li
0.145000 0.211667 0.545000 F F F Li
0.145000 0.211667 0.611667 F F F Li
0.145000 0.211667 0.678333 F F F Li
0.145000 0.211667 0.745000 F F F Li
0.145000 0.211667 0.811667 F F F Li
0.145000 0.211667 0.878333 F F F Li
0.145000 0.211667 0.945000 F F F Li
0.145000 0.278333 0.011667 F F F Li
0.145000 0.278333 0.078333 F F F Li
0.145000 0.278333 0.145000 F F F Li
0.145000 0.278333 0.211667 F F F Li
0.145000 0.278333 0.278333 F F F Li
0.145000 0.278333 0.345000 F F F Li
0.145000 0.278333 0.411667 F F F Li
0.145000 0.278333 0.478333 F F F Li
0.145000 0.278333 0.545000 F F F Li
0.145000 0.278333 0.611667 F F F Li
0.145000 0.278333 0.678333 F F F Li
0.145000 0.278333 0.745000 F F F Li
0.145000 0.278333 0.811667 F F F Li
0.145000 0.278333 0.878333 F F F Li
0.145000 0.278333 0.945000 F F F Li
0.145000 0.345000 0.011667 F F F Li
0.145000 0.345000 0.078333 F F F Li
0.145000 0.345000 0.145000 F F F Li
0.145000 0.345000 0.211667 F F F Li
0.145000 0.345000 0.278333 F F F Li
0.145000 0.345000 0.345000 F F F Li
0.145000 0.345000 0.411667 F F F Li
0.145000 0.345000 0.478333 F F F Li
0.145000 0.345000 0.545000 F F F Li
0.145000 0.345000 0.611667 F F F Li
0.145000 0.345000 0.678333 F F F Li
0.145000 0.345000 0.745000 F F F Li
0.145000 0.345000 0.811667 F F F Li
0.145000 0.345000 0.878333 F F F Li
0.145000 0.345000 0.945000 F F F Li
0.145000 0.411667 0.011667 F F F Li
0.145000 0.411667 0.078333 F F F Li
0.145000 0.411667 0.145000 F F F Li
0.145000 0.411667 0.211667 F F F Li
0.145000 0.411667 0.278333 F F F Li
0.145000 0.411667 0.345000 F F F Li
0.145000 0.411667 0.411667 F F F Li
0.145000 0.411667 0.478333 F F F Li
0.145000 0.411667 0.545000 F F F Li
0.145000 0.411667 0.611667 F F F Li
0.145000 0.411667 0.678333 F F F Li
0.145000 0.411667 0.745000 F F F Li
0.145000 0.411667 0.811667 F F F Li
0.145000 0.411667 0.878333 F F F Li
0.145000 0.411667 0.945000 F F F Li
0.145000 0.478333 0.011667 F F F Li
0.145000 0.478333 0.078333 F F F Li
0.145000 0.478333 0.145000 F F F Li
0.145000 0.478333 0.211667 F F F Li
0.145000 0.478333 0.278333 F F F Li
0.145000 0.478333 0.345000 F F F Li
0.145000 0.478333 0.411667 F F F Li
0.145000 0.478333 0.478333 F F F Li
0.145000 0.478333 0.545000 F F F Li
0.145000 0.478333 0.611667 F F F Li
0.145000 0.478333 0.678333 F F F Li
0.145000 0.478333 0.745000 F F F Li
0.145000 0.478333 0.811667 F F F Li
0.145000 0.478333 0.878333 F F F Li
0.145000 0.478333 0.945000 F F F Li
0.145000 0.545000 0.011667 F F F Li
0.145000 0.545000 0.078333 F F F Li
0.145000 0.545000 0.145000 F F F Li
0.145000 0.545000 0.211667 F F F Li
0.145000 0.545000 0.278333 F F F Li
0.145000 0.545000 0.345000 F F F Li
0.145000 0.545000 0.411667 F F F Li
0.145000 0.545000 0.478333 F F F Li
0.145000 0.545000 0.545000 F F F Li
0.145000 0.545000 0.611667 F F F Li
0.145000 0.545000 0.678333 F F F Li
0.145000 0.545000 0.745000 F F F Li
0.145000 0.545000 0.811667 F F F Li
0.145000 0.545000 0.878333 F F F Li
0.145000 0.545000 0.945000 F F F Li
0.145000 0.611667 0.011667 F F F Li
0.145000 0.611667 0.078333 F F F Li
0.145000 0.611667 0.145000 F F F Li
0.145000 0.611667 0.211667 F F F Li
0.145000 0.611667 0.278333 F F F Li
0.145000 0.611667 0.345000 F F F Li
0.145000 0.611667 0.411667 F F F Li
0.145000 0.611667 0.478333 F F F Li
0.145000 0.611667 0.545000 F F F Li
0.145000 0.611667 0.611667 F F F Li
0.145000 0.611667 0.678333 F F F Li
0.145000 0.611667 0.745000 F F F Li
0.145000 0.611667 0.811667 F F F Li
0.145000 0.611667 0.878333 F F F Li
0.145000 0.611667 0.945000 F F F Li
0.145000 0.678333 0.011667 F F F Li
0.145000 0.678333 0.078333 F F F Li
0.145000 0.678333 0.145000 F F F Li
0.145000 0.678333 0.211667 F F F Li
0.145000 0.678333 0.278333 F F F Li
0.145000 0.678333 0.345000 F F F Li
0.145000 0.678333 0.411667 F F F Li
0.145000 0.678333 0.478333 F F F Li
0.145000 0.678333 0.545000 F F F Li
0.145000 0.678333 0.611667 F F F Li
0.145000 0.678333 0.678333 F F F Li
0.145000 0.678333 0.745000 F F F Li
0.145000 0.678333 0.811667 F F F Li
0.145000 0.678333 0.878333 F F F Li
0.145000 0.678333 0.945000 F F F Li
0.145000 0.745000 0.011667 F F F Li
0.145000 0.745000 0.078333 F F F Li
0.145000 0.745000 0.145000 F F F Li
0.145000 0.745000 0.211667 F F F Li
0.145000 0.745000 0.278333 F F F Li
0.145000 0.745000 0.345000 F F F Li
0.145000 0.745000 0.411667 F F F Li
0.145000 0.745000 0.478333 F F F Li
0.145000 0.745000 0.545000 F F F Li
0.145000 0.745000 0.611667 F F F Li
0.145000 0.745000 0.678333 F F F Li
0.145000 0.745000 0.745000 F F F Li
0.145000 0.745000 0.811667 F F F Li
0.145000 0.745000 0.878333 F F F Li
0.145000 0.745000 0.945000 F F F Li
0.145000 0.811667 0.011667 F F F Li
0.145000 0.811667 0.078333 F F F Li
0.145000 0.811667 0.145000 F F F Li
0.145000 0.811667 0.211667 F F F Li
0.145000 0.811667 0.278333 F F F Li
0.145000 0.811667 0.345000 F F F Li
0.145000 0.811667 0.411667 F F F Li
0.145000 0.811667 0.478333 F F F Li
0.145000 0.811667 0.545000 F F F Li
0.145000 0.811667 0.611667 F F F Li
0.145000 0.811667 0.678333 F F F Li
0.145000 0.811667 0.745000 F F F Li
0.145000 0.811667 0.811667 F F F Li
0.145000 0.811667 0.878333 F F F Li
0.145000 0.811667 0.945000 F F F Li
0.145000 0.878333 0.011667 F F F Li
0.145000 0.878333 0.078333 F F F Li
0.145000 0.878333 0.145000 F F F Li
0.145000 0.878333 0.211667 F F F Li
0.145000 0.878333 0.278333 F F F Li
0.145000 0.878333 0.345000 F F F Li
0.145000 0.878333 0.411667 F F F Li
0.145000 0.878333 0.478333 F F F Li
0.145000 0.878333 0.545000 F F F Li
0.145000 0.878333 0.611667 F F F Li
0.145000 0.878333 0.678333 F F F Li
0.145000 0.878333 0.745000 F F F Li
0.145000 0.878333 0.811667 F F F Li
0.145000 0.878333 0.878333 F F F Li
0.145000 0.878333 0.945000 F F F Li
0.145000 0.945000 0.011667 F F F Li
0.145000 0.945000 0.078333 F F F Li
0.145000 0.945000 0.145000 F F F Li
0.145000 0.945000 0.211667 F F F Li
0.145000 0.945000 0.278333 F F F Li
0.145000 0.945000 0.345000 F F F Li
0.145000 0.945000 0.411667 F F F Li
0.145000 0.945000 0.478333 F F F Li
0.145000 0.945000 0.545000 F F F Li
0.145000 0.945000 0.611667 F F F Li
0.145000 0.945000 0.678333 F F F Li
0.145000 0.945000 0.745000 F F F Li
0.145000 0.945000 0.811667 F F F Li
0.145000 0.945000 0.878333 F F F Li
0.145000 0.945000 0.945000 F F F Li
0.211667 0.011667 0.011667 F F F Li
0.211667 0.011667 0.078333 F F F Li
0.211667 0.011667 0.145000 F F F Li
0.211667 0.011667 0.211667 F F F Li
0.211667 0.011667 0.278333 F F F Li
0.211667 0.011667 0.345000 F F F Li
0.211667 0.011667 0.411667 F F F Li
0.211667 0.011667 0.478333 F F F Li
0.211667 0.011667 0.545000 F F F Li
0.211667 0.011667 0.611667 F F F Li
0.211667 0.011667 0.678333 F F F Li
0.211667 0.011667 0.745000 F F F Li
0.211667 0.011667 0.811667 F F F Li
0.211667 0.011667 0.878333 F F F Li
0.211667 0.011667 0.945000 F F F Li
0.211667 0.078333 0.011667 F F F Li
0.211667 0.078333 0.078333 F F F Li
0.211667 0.078333 0.145000 F F F Li
0.211667 0.078333 0.211667 F F F Li
0.211667 0.078333 0.278333 F F F Li
0.211667 0.078333 0.345000 F F F Li
0.211667 0.078333 0.411667 F F F Li
0.211667 0.078333 0.478333 F F F Li
0.211667 0.078333 0.545000 F F F Li
0.211667 0.078333 0.611667 F F F Li
0.211667 0.078333 0.678333 F F F Li
0.211667 0.078333 0.745000 F F F Li
0.211667 0.078333 0.811667 F F F Li
0.211667 0.078333 0.878333 F F F Li
0.211667 0.078333 0.945000 F F F Li
0.211667 0.145000 0.011667 F F F Li
0.211667 0.145000 0.078333 F F F Li
0.211667 0.145000 0.145000 F F F Li
0.211667 0.145000 0.211667 F F F Li
0.211667 0.145000 0.278333 F F F Li
0.211667 0.145000 0.345000 F F F Li
0.211667 0.145000 0.411667 F F F Li
0.211667 0.145000 0.478333 F F F Li
0.211667 0.145000 0.545000 F F F Li
0.211667 0.145000 0.611667 F F F Li
0.211667 0.145000 0.678333 F F F Li
0.211667 0.145000 0.745000 F F F Li
0.211667 0.145000 0.811667 F F F Li
0.211667 0.145000 0.878333 F F F Li
0.211667 0.145000 0.945000 F F F Li
0.211667 0.211667 0.011667 F F F Li
0.211667 0.211667 0.078333 F F F Li
0.211667 0.211667 0.145000 F F F Li
0.211667 0.211667 0.211667 F F F Li
0.211667 0.211667 0.278333 F F F Li
0.211667 0.211667 0.345000 F F F Li
0.211667 0.211667 0.411667 F F F Li
0.211667 0.211667 0.478333 F F F Li
0.211667 0.211667 0.545000 F F F Li
0.211667 0.211667 0.611667 F F F Li
0.211667 0.211667 0.678333 F F F Li
0.211667 0.211667 0.745000 F F F Li
0.211667 0.211667 0.811667 F F F Li
0.211667 0.211667 0.878333 F F F Li
0.211667 0.211667 0.945000 F F F Li
0.211667 0.278333 0.011667 F F F Li
0.211667 0.278333 0.078333 F F F Li
0.211667 0.278333 0.145000 F F F Li
0.211667 0.278333 0.211667 F F F Li
0.211667 0.278333 0.278333 F F F Li
0.211667 0.278333 0.345000 F F F Li
0.211667 0.278333 0.411667 F F F Li
0.211667 0.278333 0.478333 F F F Li
0.211667 0.278333 0.545000 F F F Li
0.211667 0.278333 0.611667 F F F Li
0.211667 0.278333 0.678333 F F F Li
0.211667 0.278333 0.745000 F F F Li
0.211667 0.278333 0.811667 F F F Li
0.211667 0.278333 0.878333 F F F Li
0.211667 0.278333 0.945000 F F F Li
0.211667 0.345000 0.011667 F F F Li
0.211667 0.345000 0.078333 F F F Li
0.211667 0.345000 0.145000 F F F Li
0.211667 0.345000 0.211667 F F F Li
0.211667 0.345000 0.278333 F F F Li
0.211667 0.345000 0.345000 F F F Li
0.211667 0.345000 0.411667 F F F Li
0.211667 0.345000 0.478333 F F F Li
0.211667 0.345000 0.545000 F F F Li
0.211667 0.345000 0.611667 F F F Li
0.211667 0.345000 0.678333 F F F Li
0.211667 0.345000 0.745000 F F F Li
0.211667 0.345000 0.811667 F F F Li
0.211667 0.345000 0.878333 F F F Li
0.211667 0.345000 0.945000 F F F Li
0.211667 0.411667 0.011667 F F F Li
0.211667 0.411667 0.078333 F F F Li
0.211667 0.411667 0.145000 F F F Li
0.211667 0.411667 0.211667 F F F Li
0.211667 0.411667 0.278333 F F F Li
0.211667 0.411667 0.345000 F F F Li
0.211667 0.411667 0.411667 F F F Li
0.211667 0.411667 0.478333 F F F Li
0.211667 0.411667 0.545000 F F F Li
0.211667 0.411667 0.611667 F F F Li
0.211667 0.411667 0.678333 F F F Li
0.211667 0.411667 0.745000 F F F Li
0.211667 0.411667 0.811667 F F F Li
0.211667 0.411667 0.878333 F F F Li
0.211667 0.411667 0.945000 F F F Li
0.211667 0.478333 0.011667 F F F Li
0.211667 0.478333 0.078333 F F F Li
0.211667 0.478333 0.145000 F F F Li
0.211667 0.478333 0.211667 F F F Li
0.211667 0.478333 0.278333 F F F Li
0.211667 0.478333 0.345000 F F F Li
0.211667 0.478333 0.411667 F F F Li
0.211667 0.478333 0.478333 F F F Li
0.211667 0.478333 0.545000 F F F Li
0.211667 0.478333 0.611667 F F F Li
0.211667 0.478333 0.678333 F F F Li
0.211667 0.478333 0.745000 F F F Li
0.211667 0.478333 0.811667 F F F Li
0.211667 0.478333 0.878333 F F F Li
0.211667 0.478333 0.945000 F F F Li
0.211667 0.545000 0.011667 F F F Li
0.211667 0.545000 0.078333 F F F Li
0.211667 0.545000 0.145000 F F F Li
0.211667 0.545000 0.211667 F F F Li
0.211667 0.545000 0.278333 F F F Li
0.211667 0.545000 0.345000 F F F Li
0.211667 0.545000 0.411667 F F F Li
0.211667 0.545000 0.478333 F F F Li
0.211667 0.545000 0.545000 F F F Li
0.211667 0.545000 0.611667 F F F Li
0.211667 0.545000 0.678333 F F F Li
0.211667 0.545000 0.745000 F F F Li
0.211667 0.545000 0.811667 F F F Li
0.211667 0.545000 0.878333 F F F Li
0.211667 0.545000 0.945000 F F F Li
0.211667 0.611667 0.011667 F F F Li
0.211667 0.611667 0.078333 F F F Li
0.211667 0.611667 0.145000 F F F Li
0.211667 0.611667 0.211667 F F F Li
0.211667 0.611667 0.278333 F F F Li
0.211667 0.611667 0.345000 F F F Li
0.211667 0.611667 0.411667 F F F Li
0.211667 0.611667 0.478333 F F F Li
0.211667 0.611667 0.545000 F F F Li
0.211667 0.611667 0.611667 F F F Li
0.211667 0.611667 0.678333 F F F Li
0.211667 0.611667 0.745000 F F F Li
0.211667 0.611667 0.811667 F F F Li
0.211667 0.611667 0.878333 F F F Li
0.211667 0.611667 0.945000 F F F Li
0.211667 0.678333 0.011667 F F F Li
0.211667 0.678333 0.078333 F F F Li
0.211667 0.678333 0.145000 F F F Li
0.211667 0.678333 0.211667 F F F Li