Li97 Mg22 Al529 O864
1.0
24.240000 0.000000 0.000000
0.000000 24.240000 0.000000
0.000000 0.000000 24.240000
Li Al Mg O
97 529 22 864
direct
0.125000 0.125000 0.125000 Li
0.125000 0.125000 0.458333 Li
0.125000 0.458333 0.458333 Li
0.125000 0.458333 0.791667 Li
0.125000 0.791667 0.458333 Li
0.125000 0.791667 0.791667 Li
0.458333 0.125000 0.458333 Li
0.458333 0.458333 0.458333 Li
0.458333 0.791667 0.125000 Li
0.458333 0.791667 0.458333 Li
0.458333 0.791667 0.791667 Li
0.791667 0.125000 0.125000 Li
0.791667 0.125000 0.458333 Li
0.791667 0.125000 0.791667 Li
0.791667 0.458333 0.125000 Li
0.791667 0.458333 0.458333 Li
0.791667 0.791667 0.791667 Li
0.291667 0.625000 0.125000 Li
0.291667 0.625000 0.458333 Li
0.291667 0.625000 0.791667 Li
0.625000 0.291667 0.458333 Li
0.625000 0.625000 0.458333 Li
0.625000 0.625000 0.791667 Li
0.625000 0.958333 0.125000 Li
0.625000 0.958333 0.458333 Li
0.625000 0.958333 0.791667 Li
0.958333 0.291667 0.458333 Li
0.958333 0.625000 0.125000 Li
0.958333 0.625000 0.791667 Li
0.958333 0.958333 0.458333 Li
0.208333 0.208333 0.208333 Li
0.208333 0.208333 0.541667 Li
0.208333 0.208333 0.875000 Li
0.208333 0.541667 0.208333 Li
0.541667 0.208333 0.875000 Li
0.541667 0.541667 0.208333 Li
0.541667 0.541667 0.541667 Li
0.541667 0.875000 0.208333 Li
0.541667 0.875000 0.541667 Li
0.541667 0.875000 0.875000 Li
0.875000 0.208333 0.208333 Li
0.875000 0.541667 0.208333 Li
0.875000 0.541667 0.875000 Li
0.375000 0.375000 0.208333 Li
0.375000 0.708333 0.208333 Li
0.375000 0.041667 0.208333 Li
0.375000 0.041667 0.541667 Li
0.708333 0.375000 0.208333 Li
0.708333 0.708333 0.541667 Li
0.708333 0.708333 0.875000 Li
0.708333 0.041667 0.875000 Li
0.041667 0.708333 0.875000 Li
0.291667 0.125000 0.625000 Li
0.291667 0.125000 0.958333 Li
0.625000 0.125000 0.625000 Li
0.625000 0.125000 0.958333 Li
0.625000 0.458333 0.291667 Li
0.625000 0.458333 0.958333 Li
0.625000 0.791667 0.291667 Li
0.958333 0.125000 0.291667 Li
0.958333 0.458333 0.625000 Li
0.958333 0.791667 0.291667 Li
0.125000 0.291667 0.291667 Li
0.125000 0.291667 0.625000 Li
0.125000 0.625000 0.625000 Li
0.458333 0.625000 0.291667 Li
0.458333 0.625000 0.625000 Li
0.458333 0.625000 0.958333 Li
0.458333 0.958333 0.625000 Li
0.791667 0.291667 0.291667 Li
0.791667 0.625000 0.291667 Li
0.791667 0.625000 0.625000 Li
0.791667 0.958333 0.291667 Li
0.375000 0.208333 0.375000 Li
0.375000 0.208333 0.708333 Li
0.375000 0.541667 0.041667 Li
0.375000 0.875000 0.375000 Li
0.708333 0.208333 0.041667 Li
0.708333 0.541667 0.708333 Li
0.708333 0.541667 0.041667 Li
0.708333 0.875000 0.375000 Li
0.041667 0.208333 0.375000 Li
0.041667 0.208333 0.041667 Li
0.041667 0.541667 0.041667 Li
0.041667 0.875000 0.708333 Li
0.041667 0.875000 0.041667 Li
0.208333 0.375000 0.375000 Li
0.208333 0.708333 0.708333 Li
0.208333 0.708333 0.041667 Li
0.208333 0.041667 0.708333 Li
0.541667 0.375000 0.708333 Li
0.541667 0.708333 0.375000 Li
0.875000 0.375000 0.375000 Li
0.875000 0.708333 0.375000 Li
0.875000 0.041667 0.375000 Li
0.875000 0.041667 0.708333 Li
0.875000 0.041667 0.041667 Li
0.125000 0.125000 0.791667 Al
0.125000 0.458333 0.125000 Al
0.125000 0.791667 0.125000 Al
0.458333 0.125000 0.125000 Al
0.458333 0.125000 0.791667 Al
0.458333 0.458333 0.791667 Al
0.791667 0.458333 0.791667 Al
0.291667 0.291667 0.125000 Al
0.291667 0.291667 0.458333 Al
0.291667 0.291667 0.791667 Al
0.291667 0.958333 0.125000 Al
0.291667 0.958333 0.458333 Al
0.291667 0.958333 0.791667 Al
0.625000 0.291667 0.125000 Al
0.625000 0.291667 0.791667 Al
0.625000 0.625000 0.125000 Al
0.958333 0.291667 0.125000 Al
0.958333 0.291667 0.791667 Al
0.958333 0.958333 0.125000 Al
0.958333 0.958333 0.791667 Al
0.208333 0.541667 0.541667 Al
0.208333 0.541667 0.875000 Al
0.208333 0.875000 0.208333 Al
0.208333 0.875000 0.541667 Al
0.208333 0.875000 0.875000 Al
0.541667 0.208333 0.208333 Al
0.541667 0.208333 0.541667 Al
0.541667 0.541667 0.875000 Al
0.875000 0.208333 0.541667 Al
0.875000 0.208333 0.875000 Al
0.875000 0.541667 0.541667 Al
0.875000 0.875000 0.541667 Al
0.375000 0.375000 0.541667 Al
0.375000 0.375000 0.875000 Al
0.375000 0.708333 0.875000 Al
0.375000 0.041667 0.875000 Al
0.708333 0.375000 0.875000 Al
0.041667 0.375000 0.208333 Al
0.041667 0.375000 0.541667 Al
0.041667 0.375000 0.875000 Al
0.041667 0.708333 0.208333 Al
0.041667 0.708333 0.541667 Al
0.041667 0.041667 0.208333 Al
0.041667 0.041667 0.541667 Al
0.041667 0.041667 0.875000 Al
0.291667 0.125000 0.291667 Al
0.291667 0.458333 0.291667 Al
0.291667 0.458333 0.958333 Al
0.291667 0.791667 0.291667 Al
0.291667 0.791667 0.625000 Al
0.291667 0.791667 0.958333 Al
0.625000 0.125000 0.291667 Al
0.625000 0.458333 0.625000 Al
0.625000 0.791667 0.625000 Al
0.625000 0.791667 0.958333 Al
0.958333 0.125000 0.625000 Al
0.958333 0.125000 0.958333 Al
0.958333 0.458333 0.958333 Al
0.958333 0.791667 0.958333 Al
0.125000 0.291667 0.958333 Al
0.125000 0.625000 0.291667 Al
0.125000 0.625000 0.958333 Al
0.125000 0.958333 0.291667 Al
0.125000 0.958333 0.958333 Al
0.458333 0.291667 0.291667 Al
0.458333 0.291667 0.625000 Al
0.458333 0.958333 0.291667 Al
0.458333 0.958333 0.958333 Al
0.791667 0.291667 0.625000 Al
0.791667 0.291667 0.958333 Al
0.791667 0.958333 0.625000 Al
0.791667 0.958333 0.958333 Al
0.375000 0.208333 0.041667 Al
0.375000 0.541667 0.708333 Al
0.375000 0.875000 0.708333 Al
0.375000 0.875000 0.041667 Al
0.708333 0.208333 0.375000 Al
0.708333 0.208333 0.708333 Al
0.708333 0.541667 0.375000 Al
0.708333 0.875000 0.708333 Al
0.041667 0.208333 0.708333 Al
0.041667 0.541667 0.708333 Al
0.041667 0.875000 0.375000 Al
0.208333 0.375000 0.708333 Al
0.208333 0.375000 0.041667 Al
0.208333 0.041667 0.375000 Al
0.208333 0.041667 0.041667 Al
0.541667 0.375000 0.375000 Al
0.541667 0.375000 0.041667 Al
0.541667 0.708333 0.708333 Al
0.541667 0.708333 0.041667 Al
0.541667 0.041667 0.375000 Al
0.541667 0.041667 0.708333 Al
0.875000 0.375000 0.708333 Al
0.875000 0.375000 0.041667 Al
0.875000 0.708333 0.708333 Al
0.875000 0.708333 0.041667 Al
0.166667 0.333333 0.166667 Al
0.166667 0.333333 0.500000 Al
0.166667 0.333333 0.833333 Al
0.166667 0.666667 0.166667 Al
0.166667 0.666667 0.500000 Al
0.166667 0.666667 0.833333 Al
0.166667 0.000000 0.166667 Al
0.166667 0.000000 0.500000 Al
0.166667 0.000000 0.833333 Al
0.500000 0.333333 0.166667 Al
0.500000 0.333333 0.500000 Al
0.500000 0.333333 0.833333 Al
0.500000 0.666667 0.166667 Al
0.500000 0.666667 0.500000 Al
0.500000 0.666667 0.833333 Al
0.500000 0.000000 0.166667 Al
0.500000 0.000000 0.500000 Al
0.500000 0.000000 0.833333 Al
0.833333 0.333333 0.166667 Al
0.833333 0.333333 0.500000 Al
0.833333 0.333333 0.833333 Al
0.833333 0.666667 0.166667 Al
0.833333 0.666667 0.500000 Al
0.833333 0.666667 0.833333 Al
0.833333 0.000000 0.166667 Al
0.833333 0.000000 0.500000 Al
0.833333 0.000000 0.833333 Al
0.250000 0.416667 0.166667 Al
0.250000 0.416667 0.500000 Al
0.250000 0.416667 0.833333 Al
0.250000 0.750000 0.166667 Al
0.250000 0.750000 0.500000 Al
0.250000 0.750000 0.833333 Al
0.250000 0.083333 0.166667 Al
0.250000 0.083333 0.500000 Al
0.250000 0.083333 0.833333 Al
0.583333 0.416667 0.166667 Al
0.583333 0.416667 0.500000 Al
0.583333 0.416667 0.833333 Al
0.583333 0.750000 0.166667 Al
0.583333 0.750000 0.500000 Al
0.583333 0.750000 0.833333 Al
0.583333 0.083333 0.166667 Al
0.583333 0.083333 0.500000 Al
0.583333 0.083333 0.833333 Al
0.916667 0.416667 0.166667 Al
0.916667 0.416667 0.500000 Al
0.916667 0.416667 0.833333 Al
0.916667 0.750000 0.166667 Al
0.916667 0.750000 0.500000 Al
0.916667 0.750000 0.833333 Al
0.916667 0.083333 0.166667 Al
0.916667 0.083333 0.500000 Al
0.916667 0.083333 0.833333 Al
0.333333 0.166667 0.166667 Al
0.333333 0.166667 0.500000 Al
0.333333 0.166667 0.833333 Al
0.333333 0.500000 0.166667 Al
0.333333 0.500000 0.500000 Al
0.333333 0.500000 0.833333 Al
0.333333 0.833333 0.166667 Al
0.333333 0.833333 0.500000 Al
0.333333 0.833333 0.833333 Al
0.666667 0.166667 0.166667 Al
0.666667 0.166667 0.500000 Al
0.666667 0.166667 0.833333 Al
0.666667 0.500000 0.166667 Al
0.666667 0.500000 0.500000 Al
0.666667 0.500000 0.833333 Al
0.666667 0.833333 0.166667 Al
0.666667 0.833333 0.500000 Al
0.666667 0.833333 0.833333 Al
0.000000 0.166667 0.166667 Al
0.000000 0.166667 0.500000 Al
0.000000 0.166667 0.833333 Al
0.000000 0.500000 0.166667 Al
0.000000 0.500000 0.500000 Al
0.000000 0.500000 0.833333 Al
0.000000 0.833333 0.166667 Al
0.000000 0.833333 0.500000 Al
0.000000 0.833333 0.833333 Al
0.416667 0.250000 0.166667 Al
0.416667 0.250000 0.500000 Al
0.416667 0.250000 0.833333 Al
0.416667 0.583333 0.166667 Al
0.416667 0.583333 0.500000 Al
0.416667 0.583333 0.833333 Al
0.416667 0.916667 0.166667 Al
0.416667 0.916667 0.500000 Al
0.416667 0.916667 0.833333 Al
0.750000 0.250000 0.166667 Al
0.750000 0.250000 0.500000 Al
0.750000 0.250000 0.833333 Al
0.750000 0.583333 0.166667 Al
0.750000 0.583333 0.500000 Al
0.750000 0.583333 0.833333 Al
0.750000 0.916667 0.166667 Al
0.750000 0.916667 0.500000 Al
0.750000 0.916667 0.833333 Al
0.083333 0.250000 0.166667 Al
0.083333 0.250000 0.500000 Al
0.083333 0.250000 0.833333 Al
0.083333 0.583333 0.166667 Al
0.083333 0.583333 0.500000 Al
0.083333 0.583333 0.833333 Al
0.083333 0.916667 0.166667 Al
0.083333 0.916667 0.500000 Al
0.083333 0.916667 0.833333 Al
0.166667 0.416667 0.250000 Al
0.166667 0.416667 0.583333 Al
0.166667 0.416667 0.916667 Al
0.166667 0.750000 0.250000 Al
0.166667 0.750000 0.583333 Al
0.166667 0.750000 0.916667 Al
0.166667 0.083333 0.250000 Al
0.166667 0.083333 0.583333 Al
0.166667 0.083333 0.916667 Al
0.500000 0.416667 0.250000 Al
0.500000 0.416667 0.583333 Al
0.500000 0.416667 0.916667 Al
0.500000 0.750000 0.250000 Al
0.500000 0.750000 0.583333 Al
0.500000 0.750000 0.916667 Al
0.500000 0.083333 0.250000 Al
0.500000 0.083333 0.583333 Al
0.500000 0.083333 0.916667 Al
0.833333 0.416667 0.250000 Al
0.833333 0.416667 0.583333 Al
0.833333 0.416667 0.916667 Al
0.833333 0.750000 0.250000 Al
0.833333 0.750000 0.583333 Al
0.833333 0.750000 0.916667 Al
0.833333 0.083333 0.250000 Al
0.833333 0.083333 0.583333 Al
0.833333 0.083333 0.916667 Al
0.250000 0.333333 0.250000 Al
0.250000 0.333333 0.583333 Al
0.250000 0.333333 0.916667 Al
0.250000 0.666667 0.250000 Al
0.250000 0.666667 0.583333 Al
0.250000 0.666667 0.916667 Al
0.250000 0.000000 0.250000 Al
0.250000 0.000000 0.583333 Al
0.250000 0.000000 0.916667 Al
0.583333 0.333333 0.250000 Al
0.583333 0.333333 0.583333 Al
0.583333 0.333333 0.916667 Al
0.583333 0.666667 0.250000 Al
0.583333 0.666667 0.583333 Al
0.583333 0.666667 0.916667 Al
0.583333 0.000000 0.250000 Al
0.583333 0.000000 0.583333 Al
0.583333 0.000000 0.916667 Al
0.916667 0.333333 0.250000 Al
0.916667 0.333333 0.583333 Al
0.916667 0.333333 0.916667 Al
0.916667 0.666667 0.250000 Al
0.916667 0.666667 0.583333 Al
0.916667 0.666667 0.916667 Al
0.916667 0.000000 0.250000 Al
0.916667 0.000000 0.583333 Al
0.916667 0.000000 0.916667 Al
0.333333 0.250000 0.250000 Al
0.333333 0.250000 0.583333 Al
0.333333 0.250000 0.916667 Al
0.333333 0.583333 0.250000 Al
0.333333 0.583333 0.583333 Al
0.333333 0.583333 0.916667 Al
0.333333 0.916667 0.250000 Al
0.333333 0.916667 0.583333 Al
0.333333 0.916667 0.916667 Al
0.666667 0.250000 0.250000 Al
0.666667 0.250000 0.583333 Al
0.666667 0.250000 0.916667 Al
0.666667 0.583333 0.250000 Al
0.666667 0.583333 0.583333 Al
0.666667 0.583333 0.916667 Al
0.666667 0.916667 0.250000 Al
0.666667 0.916667 0.583333 Al
0.666667 0.916667 0.916667 Al
0.000000 0.250000 0.250000 Al
0.000000 0.250000 0.583333 Al
0.000000 0.250000 0.916667 Al
0.000000 0.583333 0.250000 Al
0.000000 0.583333 0.583333 Al
0.000000 0.583333 0.916667 Al
0.000000 0.916667 0.250000 Al
0.000000 0.916667 0.583333 Al
0.000000 0.916667 0.916667 Al
0.416667 0.166667 0.250000 Al
0.416667 0.166667 0.583333 Al
0.416667 0.166667 0.916667 Al
0.416667 0.500000 0.250000 Al
0.416667 0.500000 0.583333 Al
0.416667 0.500000 0.916667 Al
0.416667 0.833333 0.250000 Al
0.416667 0.833333 0.583333 Al
0.416667 0.833333 0.916667 Al
0.750000 0.166667 0.250000 Al
0.750000 0.166667 0.583333 Al
0.750000 0.166667 0.916667 Al
0.750000 0.500000 0.250000 Al
0.750000 0.500000 0.583333 Al
0.750000 0.500000 0.916667 Al
0.750000 0.833333 0.250000 Al
0.750000 0.833333 0.583333 Al
0.750000 0.833333 0.916667 Al
0.083333 0.166667 0.250000 Al
0.083333 0.166667 0.583333 Al
0.083333 0.166667 0.916667 Al
0.083333 0.500000 0.250000 Al
0.083333 0.500000 0.583333 Al
0.083333 0.500000 0.916667 Al
0.083333 0.833333 0.250000 Al
0.083333 0.833333 0.583333 Al
0.083333 0.833333 0.916667 Al
0.166667 0.166667 0.333333 Al
0.166667 0.166667 0.666667 Al
0.166667 0.166667 0.000000 Al
0.166667 0.500000 0.333333 Al
0.166667 0.500000 0.666667 Al
0.166667 0.500000 0.000000 Al
0.166667 0.833333 0.333333 Al
0.166667 0.833333 0.666667 Al
0.166667 0.833333 0.000000 Al
0.500000 0.166667 0.333333 Al
0.500000 0.166667 0.666667 Al
0.500000 0.166667 0.000000 Al
0.500000 0.500000 0.333333 Al
0.500000 0.500000 0.666667 Al
0.500000 0.500000 0.000000 Al
0.500000 0.833333 0.333333 Al
0.500000 0.833333 0.666667 Al
0.500000 0.833333 0.000000 Al
0.833333 0.166667 0.333333 Al
0.833333 0.166667 0.666667 Al
0.833333 0.166667 0.000000 Al
0.833333 0.500000 0.333333 Al
0.833333 0.500000 0.666667 Al
0.833333 0.500000 0.000000 Al
0.833333 0.833333 0.333333 Al
0.833333 0.833333 0.666667 Al
0.833333 0.833333 0.000000 Al
0.250000 0.250000 0.333333 Al
0.250000 0.250000 0.666667 Al
0.250000 0.250000 0.000000 Al
0.250000 0.583333 0.333333 Al
0.250000 0.583333 0.666667 Al
0.250000 0.583333 0.000000 Al
0.250000 0.916667 0.333333 Al
0.250000 0.916667 0.666667 Al
0.250000 0.916667 0.000000 Al
0.583333 0.250000 0.333333 Al
0.583333 0.250000 0.666667 Al
0.583333 0.250000 0.000000 Al
0.583333 0.583333 0.333333 Al
0.583333 0.583333 0.666667 Al
0.583333 0.583333 0.000000 Al
0.583333 0.916667 0.333333 Al
0.583333 0.916667 0.666667 Al
0.583333 0.916667 0.000000 Al
0.916667 0.250000 0.333333 Al
0.916667 0.250000 0.666667 Al
0.916667 0.250000 0.000000 Al
0.916667 0.583333 0.333333 Al
0.916667 0.583333 0.666667 Al
0.916667 0.583333 0.000000 Al
0.916667 0.916667 0.333333 Al
0.916667 0.916667 0.666667 Al
0.916667 0.916667 0.000000 Al
0.333333 0.333333 0.333333 Al
0.333333 0.333333 0.666667 Al
0.333333 0.333333 0.000000 Al
0.333333 0.666667 0.333333 Al
0.333333 0.666667 0.666667 Al
0.333333 0.666667 0.000000 Al
0.333333 0.000000 0.333333 Al
0.333333 0.000000 0.666667 Al
0.333333 0.000000 0.000000 Al
0.666667 0.333333 0.333333 Al
0.666667 0.333333 0.666667 Al
0.666667 0.333333 0.000000 Al
0.666667 0.666667 0.333333 Al
0.666667 0.666667 0.666667 Al
0.666667 0.666667 0.000000 Al
0.666667 0.000000 0.333333 Al
0.666667 0.000000 0.666667 Al
0.666667 0.000000 0.000000 Al
0.000000 0.333333 0.333333 Al
0.000000 0.333333 0.666667 Al
0.000000 0.333333 0.000000 Al
0.000000 0.666667 0.333333 Al
0.000000 0.666667 0.666667 Al
0.000000 0.666667 0.000000 Al
0.000000 0.000000 0.333333 Al
0.000000 0.000000 0.666667 Al
0.000000 0.000000 0.000000 Al
0.416667 0.416667 0.333333 Al
0.416667 0.416667 0.666667 Al
0.416667 0.416667 0.000000 Al
0.416667 0.750000 0.333333 Al
0.416667 0.750000 0.666667 Al
0.416667 0.750000 0.000000 Al
0.416667 0.083333 0.333333 Al
0.416667 0.083333 0.666667 Al
0.416667 0.083333 0.000000 Al
0.750000 0.416667 0.333333 Al
0.750000 0.416667 0.666667 Al
0.750000 0.416667 0.000000 Al
0.750000 0.750000 0.333333 Al
0.750000 0.750000 0.666667 Al
0.750000 0.750000 0.000000 Al
0.750000 0.083333 0.333333 Al
0.750000 0.083333 0.666667 Al
0.750000 0.083333 0.000000 Al
0.083333 0.416667 0.333333 Al
0.083333 0.416667 0.666667 Al
0.083333 0.416667 0.000000 Al
0.083333 0.750000 0.333333 Al
0.083333 0.750000 0.666667 Al
0.083333 0.750000 0.000000 Al
0.083333 0.083333 0.333333 Al
0.083333 0.083333 0.666667 Al
0.083333 0.083333 0.000000 Al
0.166667 0.250000 0.416667 Al
0.166667 0.250000 0.750000 Al
0.166667 0.250000 0.083333 Al
0.166667 0.583333 0.416667 Al
0.166667 0.583333 0.750000 Al
0.166667 0.583333 0.083333 Al
0.166667 0.916667 0.416667 Al
0.166667 0.916667 0.750000 Al
0.166667 0.916667 0.083333 Al
0.500000 0.250000 0.416667 Al
0.500000 0.250000 0.750000 Al
0.500000 0.250000 0.083333 Al
0.500000 0.583333 0.416667 Al
0.500000 0.583333 0.750000 Al
0.500000 0.583333 0.083333 Al
0.500000 0.916667 0.416667 Al
0.500000 0.916667 0.750000 Al
0.500000 0.916667 0.083333 Al
0.833333 0.250000 0.416667 Al
0.833333 0.250000 0.750000 Al
0.833333 0.250000 0.083333 Al
0.833333 0.583333 0.416667 Al
0.833333 0.583333 0.750000 Al
0.833333 0.583333 0.083333 Al
0.833333 0.916667 0.416667 Al
0.833333 0.916667 0.750000 Al
0.833333 0.916667 0.083333 Al
0.250000 0.166667 0.416667 Al
0.250000 0.166667 0.750000 Al
0.250000 0.166667 0.083333 Al
0.250000 0.500000 0.416667 Al
0.250000 0.500000 0.750000 Al
0.250000 0.500000 0.083333 Al
0.250000 0.833333 0.416667 Al
0.250000 0.833333 0.750000 Al
0.250000 0.833333 0.083333 Al
0.583333 0.166667 0.416667 Al
0.583333 0.166667 0.750000 Al
0.583333 0.166667 0.083333 Al
0.583333 0.500000 0.416667 Al
0.583333 0.500000 0.750000 Al
0.583333 0.500000 0.083333 Al
0.583333 0.833333 0.416667 Al
0.583333 0.833333 0.750000 Al
0.583333 0.833333 0.083333 Al
0.916667 0.166667 0.416667 Al
0.916667 0.166667 0.750000 Al
0.916667 0.166667 0.083333 Al
0.916667 0.500000 0.416667 Al
0.916667 0.500000 0.750000 Al
0.916667 0.500000 0.083333 Al
0.916667 0.833333 0.416667 Al
0.916667 0.833333 0.750000 Al
0.916667 0.833333 0.083333 Al
0.333333 0.416667 0.416667 Al
0.333333 0.416667 0.750000 Al
0.333333 0.416667 0.083333 Al
0.333333 0.750000 0.416667 Al
0.333333 0.750000 0.750000 Al
0.333333 0.750000 0.083333 Al
0.333333 0.083333 0.416667 Al
0.333333 0.083333 0.750000 Al
0.333333 0.083333 0.083333 Al
0.666667 0.416667 0.416667 Al
0.666667 0.416667 0.750000 Al
0.666667 0.416667 0.083333 Al
0.666667 0.750000 0.416667 Al
0.666667 0.750000 0.750000 Al
0.666667 0.750000 0.083333 Al
0.666667 0.083333 0.416667 Al
0.666667 0.083333 0.750000 Al
0.666667 0.083333 0.083333 Al
0.000000 0.416667 0.416667 Al
0.000000 0.416667 0.750000 Al
0.000000 0.416667 0.083333 Al
0.000000 0.750000 0.416667 Al
0.000000 0.750000 0.750000 Al
0.000000 0.750000 0.083333 Al
0.000000 0.083333 0.416667 Al
0.000000 0.083333 0.750000 Al
0.000000 0.083333 0.083333 Al
0.416667 0.333333 0.416667 Al
0.416667 0.333333 0.750000 Al
0.416667 0.333333 0.083333 Al
0.416667 0.666667 0.416667 Al
0.416667 0.666667 0.750000 Al
0.416667 0.666667 0.083333 Al
0.416667 0.000000 0.416667 Al
0.416667 0.000000 0.750000 Al
0.416667 0.000000 0.083333 Al
0.750000 0.333333 0.416667 Al
0.750000 0.333333 0.750000 Al
0.750000 0.333333 0.083333 Al
0.750000 0.666667 0.416667 Al
0.750000 0.666667 0.750000 Al
0.750000 0.666667 0.083333 Al
0.750000 0.000000 0.416667 Al
0.750000 0.000000 0.750000 Al
0.750000 0.000000 0.083333 Al
0.083333 0.333333 0.416667 Al
0.083333 0.333333 0.750000 Al
0.083333 0.333333 0.083333 Al
0.083333 0.666667 0.416667 Al
0.083333 0.666667 0.750000 Al
0.083333 0.666667 0.083333 Al
0.083333 0.000000 0.416667 Al
0.083333 0.000000 0.750000 Al
0.083333 0.000000 0.083333 Al
0.458333 0.458333 0.125000 Mg
0.791667 0.791667 0.125000 Mg
0.791667 0.791667 0.458333 Mg
0.958333 0.625000 0.458333 Mg
0.875000 0.875000 0.208333 Mg
0.875000 0.875000 0.875000 Mg
0.375000 0.708333 0.541667 Mg
0.708333 0.375000 0.541667 Mg
0.708333 0.708333 0.208333 Mg
0.708333 0.041667 0.208333 Mg
0.708333 0.041667 0.541667 Mg
0.291667 0.458333 0.625000 Mg
0.958333 0.458333 0.291667 Mg
0.958333 0.791667 0.625000 Mg
0.125000 0.958333 0.625000 Mg
0.458333 0.291667 0.958333 Mg
0.791667 0.625000 0.958333 Mg
0.375000 0.541667 0.375000 Mg
0.708333 0.875000 0.041667 Mg
0.041667 0.541667 0.375000 Mg
0.208333 0.708333 0.375000 Mg
0.541667 0.041667 0.041667 Mg
0.166667 0.250000 0.166667 O
0.166667 0.250000 0.500000 O
0.166667 0.250000 0.833333 O
0.166667 0.583333 0.166667 O
0.166667 0.583333 0.500000 O
0.166667 0.583333 0.833333 O
0.166667 0.916667 0.166667 O
0.166667 0.916667 0.500000 O
0.166667 0.916667 0.833333 O
0.500000 0.250000 0.166667 O
0.500000 0.250000 0.500000 O
0.500000 0.250000 0.833333 O
0.500000 0.583333 0.166667 O
0.500000 0.583333 0.500000 O
0.500000 0.583333 0.833333 O
0.500000 0.916667 0.166667 O
0.500000 0.916667 0.500000 O
0.500000 0.916667 0.833333 O
0.833333 0.250000 0.166667 O
0.833333 0.250000 0.500000 O
0.833333 0.250000 0.833333 O
0.833333 0.583333 0.166667 O
0.833333 0.583333 0.500000 O
0.833333 0.583333 0.833333 O
0.833333 0.916667 0.166667 O
0.833333 0.916667 0.500000 O
0.833333 0.916667 0.833333 O
0.166667 0.416667 0.166667 O
0.166667 0.416667 0.500000 O
0.166667 0.416667 0.833333 O
0.166667 0.750000 0.166667 O
0.166667 0.750000 0.500000 O
0.166667 0.750000 0.833333 O
0.166667 0.083333 0.166667 O
0.166667 0.083333 0.500000 O
0.166667 0.083333 0.833333 O
0.500000 0.416667 0.166667 O
0.500000 0.416667 0.500000 O
0.500000 0.416667 0.833333 O
0.500000 0.750000 0.166667 O
0.500000 0.750000 0.500000 O
0.500000 0.750000 0.833333 O
0.500000 0.083333 0.166667 O
0.500000 0.083333 0.500000 O
0.500000 0.083333 0.833333 O
0.833333 0.416667 0.166667 O
0.833333 0.416667 0.500000 O
0.833333 0.416667 0.833333 O
0.833333 0.750000 0.166667 O
0.833333 0.750000 0.500000 O
0.833333 0.750000 0.833333 O
0.833333 0.083333 0.166667 O
0.833333 0.083333 0.500000 O
0.833333 0.083333 0.833333 O
0.250000 0.166667 0.166667 O
0.250000 0.166667 0.500000 O
0.250000 0.166667 0.833333 O
0.250000 0.500000 0.166667 O
0.250000 0.500000 0.500000 O
0.250000 0.500000 0.833333 O
0.250000 0.833333 0.166667 O
0.250000 0.833333 0.500000 O
0.250000 0.833333 0.833333 O
0.583333 0.166667 0.166667 O
0.583333 0.166667 0.500000 O
0.583333 0.166667 0.833333 O
0.583333 0.500000 0.166667 O
0.583333 0.500000 0.500000 O
0.583333 0.500000 0.833333 O
0.583333 0.833333 0.166667 O
0.583333 0.833333 0.500000 O
0.583333 0.833333 0.833333 O
0.916667 0.166667 0.166667 O
0.916667 0.166667 0.500000 O
0.916667 0.166667 0.833333 O
0.916667 0.500000 0.166667 O
0.916667 0.500000 0.500000 O
0.916667 0.500000 0.833333 O
0.916667 0.833333 0.166667 O
0.916667 0.833333 0.500000 O
0.916667 0.833333 0.833333 O
0.250000 0.333333 0.166667 O
0.250000 0.333333 0.500000 O
0.250000 0.333333 0.833333 O
0.250000 0.666667 0.166667 O
0.250000 0.666667 0.500000 O
0.250000 0.666667 0.833333 O
0.250000 0.000000 0.166667 O
0.250000 0.000000 0.500000 O
0.250000 0.000000 0.833333 O
0.583333 0.333333 0.166667 O
0.583333 0.333333 0.500000 O
0.583333 0.333333 0.833333 O
0.583333 0.666667 0.166667 O
0.583333 0.666667 0.500000 O
0.583333 0.666667 0.833333 O
0.583333 0.000000 0.166667 O
0.583333 0.000000 0.500000 O
0.583333 0.000000 0.833333 O
0.916667 0.333333 0.166667 O
0.916667 0.333333 0.500000 O
0.916667 0.333333 0.833333 O
0.916667 0.666667 0.166667 O
0.916667 0.666667 0.500000 O
0.916667 0.666667 0.833333 O
0.916667 0.000000 0.166667 O
0.916667 0.000000 0.500000 O
0.916667 0.000000 0.833333 O
0.333333 0.250000 0.166667 O
0.333333 0.250000 0.500000 O
0.333333 0.250000 0.833333 O
0.333333 0.583333 0.166667 O
0.333333 0.583333 0.500000 O
0.333333 0.583333 0.833333 O
0.333333 0.916667 0.166667 O
0.333333 0.916667 0.500000 O
0.333333 0.916667 0.833333 O
0.666667 0.250000 0.166667 O
0.666667 0.250000 0.500000 O
0.666667 0.250000 0.833333 O
0.666667 0.583333 0.166667 O
0.666667 0.583333 0.500000 O
0.666667 0.583333 0.833333 O
0.666667 0.916667 0.166667 O
0.666667 0.916667 0.500000 O
0.666667 0.916667 0.833333 O
0.000000 0.250000 0.166667 O
0.000000 0.250000 0.500000 O
0.000000 0.250000 0.833333 O
0.000000 0.583333 0.166667 O
0.000000 0.583333 0.500000 O
0.000000 0.583333 0.833333 O
0.000000 0.916667 0.166667 O
0.000000 0.916667 0.500000 O
0.000000 0.916667 0.833333 O
0.333333 0.416667 0.166667 O
0.333333 0.416667 0.500000 O
0.333333 0.416667 0.833333 O
0.333333 0.750000 0.166667 O
0.333333 0.750000 0.500000 O
0.333333 0.750000 0.833333 O
0.333333 0.083333 0.166667 O
0.333333 0.083333 0.500000 O
0.333333 0.083333 0.833333 O
0.666667 0.416667 0.166667 O
0.666667 0.416667 0.500000 O
0.666667 0.416667 0.833333 O
0.666667 0.750000 0.166667 O
0.666667 0.750000 0.500000 O
0.666667 0.750000 0.833333 O
0.666667 0.083333 0.166667 O
0.666667 0.083333 0.500000 O
0.666667 0.083333 0.833333 O
0.000000 0.416667 0.166667 O
0.000000 0.416667 0.500000 O
0.000000 0.416667 0.833333 O
0.000000 0.750000 0.166667 O
0.000000 0.750000 0.500000 O
0.000000 0.750000 0.833333 O
0.000000 0.083333 0.166667 O
0.000000 0.083333 0.500000 O
0.000000 0.083333 0.833333 O
0.416667 0.166667 0.166667 O
0.416667 0.166667 0.500000 O
0.416667 0.166667 0.833333 O
0.416667 0.500000 0.166667 O
0.416667 0.500000 0.500000 O
0.416667 0.500000 0.833333 O
0.416667 0.833333 0.166667 O
0.416667 0.833333 0.500000 O
0.416667 0.833333 0.833333 O
0.750000 0.166667 0.166667 O
0.750000 0.166667 0.500000 O
0.750000 0.166667 0.833333 O
0.750000 0.500000 0.166667 O
0.750000 0.500000 0.500000 O
0.750000 0.500000 0.833333 O
0.750000 0.833333 0.166667 O
0.750000 0.833333 0.500000 O
0.750000 0.833333 0.833333 O
0.083333 0.166667 0.166667 O
0.083333 0.166667 0.500000 O
0.083333 0.166667 0.833333 O
0.083333 0.500000 0.166667 O
0.083333 0.500000 0.500000 O
0.083333 0.500000 0.833333 O
0.083333 0.833333 0.166667 O
0.083333 0.833333 0.500000 O
0.083333 0.833333 0.833333 O
0.416667 0.333333 0.166667 O
0.416667 0.333333 0.500000 O
0.416667 0.333333 0.833333 O
0.416667 0.666667 0.166667 O
0.416667 0.666667 0.500000 O
0.416667 0.666667 0.833333 O
0.416667 0.000000 0.166667 O
0.416667 0.000000 0.500000 O
0.416667 0.000000 0.833333 O
0.750000 0.333333 0.166667 O
0.750000 0.333333 0.500000 O
0.750000 0.333333 0.833333 O
0.750000 0.666667 0.166667 O
0.750000 0.666667 0.500000 O
0.750000 0.666667 0.833333 O
0.750000 0.000000 0.166667 O
0.750000 0.000000 0.500000 O
0.750000 0.000000 0.833333 O
0.083333 0.333333 0.166667 O
0.083333 0.333333 0.500000 O
0.083333 0.333333 0.833333 O
0.083333 0.666667 0.166667 O
0.083333 0.666667 0.500000 O
0.083333 0.666667 0.833333 O
0.083333 0.000000 0.166667 O
0.083333 0.000000 0.500000 O
0.083333 0.000000 0.833333 O
0.166667 0.166667 0.250000 O
0.166667 0.166667 0.583333 O
0.166667 0.166667 0.916667 O
0.166667 0.500000 0.250000 O
0.166667 0.500000 0.583333 O
0.166667 0.500000 0.916667 O
0.166667 0.833333 0.250000 O
0.166667 0.833333 0.583333 O
0.166667 0.833333 0.916667 O
0.500000 0.166667 0.250000 O
0.500000 0.166667 0.583333 O
0.500000 0.166667 0.916667 O
0.500000 0.500000 0.250000 O
0.500000 0.500000 0.583333 O
0.500000 0.500000 0.916667 O
0.500000 0.833333 0.250000 O
0.500000 0.833333 0.583333 O
0.500000 0.833333 0.916667 O
0.833333 0.166667 0.250000 O
0.833333 0.166667 0.583333 O
0.833333 0.166667 0.916667 O
0.833333 0.500000 0.250000 O
0.833333 0.500000 0.583333 O
0.833333 0.500000 0.916667 O
0.833333 0.833333 0.250000 O
0.833333 0.833333 0.583333 O
0.833333 0.833333 0.916667 O
0.166667 0.333333 0.250000 O
0.166667 0.333333 0.583333 O
0.166667 0.333333 0.916667 O
0.166667 0.666667 0.250000 O
0.166667 0.666667 0.583333 O
0.166667 0.666667 0.916667 O
0.166667 0.000000 0.250000 O
0.166667 0.000000 0.583333 O
0.166667 0.000000 0.916667 O
0.500000 0.333333 0.250000 O
0.500000 0.333333 0.583333 O
0.500000 0.333333 0.916667 O
0.500000 0.666667 0.250000 O
0.500000 0.666667 0.583333 O
0.500000 0.666667 0.916667 O
0.500000 0.000000 0.250000 O
0.500000 0.000000 0.583333 O
0.500000 0.000000 0.916667 O
0.833333 0.333333 0.250000 O
0.833333 0.333333 0.583333 O
0.833333 0.333333 0.916667 O
0.833333 0.666667 0.250000 O
0.833333 0.666667 0.583333 O
0.833333 0.666667 0.916667 O
0.833333 0.000000 0.250000 O
0.833333 0.000000 0.583333 O
0.833333 0.000000 0.916667 O
0.250000 0.250000 0.250000 O
0.250000 0.250000 0.583333 O
0.250000 0.250000 0.916667 O
0.250000 0.583333 0.250000 O
0.250000 0.583333 0.583333 O
0.250000 0.583333 0.916667 O
0.250000 0.916667 0.250000 O
0.250000 0.916667 0.583333 O
0.250000 0.916667 0.916667 O
0.583333 0.250000 0.250000 O
0.583333 0.250000 0.583333 O
0.583333 0.250000 0.916667 O
0.583333 0.583333 0.250000 O
0.583333 0.583333 0.583333 O
0.583333 0.583333 0.916667 O
0.583333 0.916667 0.250000 O
0.583333 0.916667 0.583333 O
0.583333 0.916667 0.916667 O
0.916667 0.250000 0.250000 O
0.916667 0.250000 0.583333 O
0.916667 0.250000 0.916667 O
0.916667 0.583333 0.250000 O
0.916667 0.583333 0.583333 O
0.916667 0.583333 0.916667 O
0.916667 0.916667 0.250000 O
0.916667 0.916667 0.583333 O
0.916667 0.916667 0.916667 O
0.250000 0.416667 0.250000 O
0.250000 0.416667 0.583333 O
0.250000 0.416667 0.916667 O
0.250000 0.750000 0.250000 O
0.250000 0.750000 0.583333 O
0.250000 0.750000 0.916667 O
0.250000 0.083333 0.250000 O
0.250000 0.083333 0.583333 O
0.250000 0.083333 0.916667 O
0.583333 0.416667 0.250000 O
0.583333 0.416667 0.583333 O
0.583333 0.416667 0.916667 O
0.583333 0.750000 0.250000 O
0.583333 0.750000 0.583333 O
0.583333 0.750000 0.916667 O
0.583333 0.083333 0.250000 O
0.583333 0.083333 0.583333 O
0.583333 0.083333 0.916667 O
0.916667 0.416667 0.250000 O
0.916667 0.416667 0.583333 O
0.916667 0.416667 0.916667 O
0.916667 0.750000 0.250000 O
0.916667 0.750000 0.583333 O
0.916667 0.750000 0.916667 O
0.916667 0.083333 0.250000 O
0.916667 0.083333 0.583333 O
0.916667 0.083333 0.916667 O
0.333333 0.166667 0.250000 O
0.333333 0.166667 0.583333 O
0.333333 0.166667 0.916667 O
0.333333 0.500000 0.250000 O
0.333333 0.500000 0.583333 O
0.333333 0.500000 0.916667 O
0.333333 0.833333 0.250000 O
0.333333 0.833333 0.583333 O
0.333333 0.833333 0.916667 O
0.666667 0.166667 0.250000 O
0.666667 0.166667 0.583333 O
0.666667 0.166667 0.916667 O
0.666667 0.500000 0.250000 O
0.666667 0.500000 0.583333 O
0.666667 0.500000 0.916667 O
0.666667 0.833333 0.250000 O
0.666667 0.833333 0.583333 O
0.666667 0.833333 0.916667 O
0.000000 0.166667 0.250000 O
0.000000 0.166667 0.583333 O
0.000000 0.166667 0.916667 O
0.000000 0.500000 0.250000 O
0.000000 0.500000 0.583333 O
0.000000 0.500000 0.916667 O
0.000000 0.833333 0.250000 O
0.000000 0.833333 0.583333 O
0.000000 0.833333 0.916667 O
0.333333 0.333333 0.250000 O
0.333333 0.333333 0.583333 O
0.333333 0.333333 0.916667 O
0.333333 0.666667 0.250000 O
0.333333 0.666667 0.583333 O
0.333333 0.666667 0.916667 O
0.333333 0.000000 0.250000 O
0.333333 0.000000 0.583333 O