216 432 864
1.0
24.240000 0.000000 0.000000
0.000000 24.240000 0.000000
0.000000 0.000000 24.240000
Mg Al O
112 338 912
Selective dynamics
Cartesian
    3.030000    3.030000    3.030000
    3.030000    3.030000   11.109991
    3.030000   19.190008    3.030000
    3.030000   19.190008   11.109991
   11.109991   11.109991    3.030000
   11.109991   11.109991   11.109991
   11.109991   11.109991   19.190008
   19.190008    3.030000    3.030000
   19.190008    3.030000   11.109991
    7.070008    7.070008    3.030000
    7.070008    7.070008   11.109991
    7.070008    7.070008   19.190008
    7.070008   23.229992    3.030000
    7.070008   23.229992   11.109991
   15.150000   15.150000    3.030000
   15.150000   15.150000   11.109991
   15.150000   15.150000   19.190008
   23.229992    7.070008    3.030000
   23.229992    7.070008   11.109991
   23.229992   23.229992    3.030000
   23.229992   23.229992   11.109991
    5.049992   21.209999    5.049992
    5.049992   21.209999   13.130008
   13.130008   13.130008    5.049992
   13.130008   13.130008   13.130008
   13.130008   13.130008   21.209999
   21.209999    5.049992    5.049992
   21.209999    5.049992   13.130008
   21.209999   21.209999    5.049992
   21.209999   21.209999   13.130008
    9.090000    9.090000    5.049992
    9.090000    9.090000   13.130008
    9.090000    9.090000   21.209999
   17.169992   17.169992    5.049992
   17.169992   17.169992   13.130008
   17.169992   17.169992   21.209999
   17.169992    1.010008    5.049992
   17.169992    1.010008   13.130008
    1.010008   17.169992    5.049992
    1.010008   17.169992   13.130008
    1.010008    1.010008    5.049992
    1.010008    1.010008   13.130008
    7.070008   11.109991    7.070008
    7.070008   11.109991   15.150000
    7.070008   11.109991   23.229992
    7.070008   19.190008    7.070008
    7.070008   19.190008   15.150000
   15.150000    3.030000    7.070008
   15.150000    3.030000   15.150000
   15.150000   11.109991    7.070008
   15.150000   11.109991   15.150000
   15.150000   11.109991   23.229992
   15.150000   19.190008    7.070008
   15.150000   19.190008   15.150000
   15.150000   19.190008   23.229992
   23.229992    3.030000    7.070008
   23.229992    3.030000   15.150000
   23.229992   19.190008    7.070008
   23.229992   19.190008   15.150000
    3.030000   15.150000    7.070008
    3.030000   15.150000   15.150000
    3.030000   23.229992    7.070008
    3.030000   23.229992   15.150000
   11.109991    7.070008    7.070008
   11.109991    7.070008   15.150000
   11.109991    7.070008   23.229992
   11.109991   15.150000    7.070008
   11.109991   15.150000   15.150000
   11.109991   15.150000   23.229992
   11.109991   23.229992    7.070008
   11.109991   23.229992   15.150000
   19.190008    7.070008    7.070008
   19.190008    7.070008   15.150000
   19.190008   15.150000    7.070008
   19.190008   15.150000   15.150000
   19.190008   15.150000   23.229992
   19.190008   23.229992    7.070008
   19.190008   23.229992   15.150000
    9.090000    5.049992    9.090000
    9.090000    5.049992   17.169992
    9.090000    5.049992    1.010008
    9.090000   13.130008    9.090000
    9.090000   13.130008   17.169992
    9.090000   13.130008    1.010008
    9.090000   21.209999    9.090000
    9.090000   21.209999    1.010008
   17.169992    5.049992    9.090000
   17.169992    5.049992    1.010008
   17.169992   13.130008    9.090000
   17.169992   13.130008   17.169992
   17.169992   13.130008    1.010008
    1.010008    5.049992    9.090000
    1.010008    5.049992    1.010008
    1.010008   13.130008    9.090000
    1.010008   13.130008    1.010008
    1.010008   21.209999    9.090000
    1.010008   21.209999    1.010008
    5.049992    9.090000    9.090000
    5.049992    9.090000   17.169992
    5.049992    9.090000    1.010008
    5.049992   17.169992    9.090000
    5.049992   17.169992    1.010008
    5.049992    1.010008    9.090000
    5.049992    1.010008    1.010008
   13.130008    9.090000    9.090000
   13.130008    9.090000   17.169992
   13.130008    9.090000    1.010008
   13.130008   17.169992    9.090000
   13.130008   17.169992   17.169992
   13.130008   17.169992    1.010008
   21.209999    9.090000    9.090000
   21.209999    9.090000    1.010008
   21.209999    1.010008    9.090000
   21.209999    1.010008    1.010008
    4.040008   16.160007    4.040008
    4.040008   16.160007   12.120000
    4.040008   16.160007   20.199991
    4.040008    0.000000    4.040008
    4.040008   24.240000    4.040008
    4.040008    0.000000   12.120000
    4.040008   24.240000   12.120000
    4.040008    0.000000   20.199991
    4.040008   24.240000   20.199991
   12.120000    8.079991    4.040008
   12.120000    8.079991   12.120000
   12.120000    8.079991   20.199991
   12.120000   16.160007    4.040008
   12.120000   16.160007   12.120000
   12.120000   16.160007   20.199991
   20.199991    8.079991    4.040008
   20.199991    8.079991   12.120000
   20.199991    8.079991   20.199991
   20.199991    0.000000    4.040008
   20.199991   24.240000    4.040008
   20.199991    0.000000   12.120000
   20.199991   24.240000   12.120000
   20.199991    0.000000   20.199991
   20.199991   24.240000   20.199991
    6.060000   10.100008    4.040008
    6.060000   10.100008   12.120000
    6.060000   10.100008   20.199991
    6.060000   18.180000    4.040008
    6.060000   18.180000   12.120000
    6.060000   18.180000   20.199991
   14.139992   10.100008    4.040008
   14.139992   10.100008   12.120000
   14.139992   10.100008   20.199991
   14.139992   18.180000    4.040008
   14.139992   18.180000   12.120000
   14.139992   18.180000   20.199991
   22.220007   10.100008    4.040008
   22.220007   10.100008   12.120000
   22.220007   10.100008   20.199991
   22.220007    2.019992    4.040008
   22.220007    2.019992   12.120000
   22.220007    2.019992   20.199991
    8.079991   12.120000    4.040008
    8.079991   12.120000   12.120000
    8.079991   12.120000   20.199991
    8.079991   20.199991    4.040008
    8.079991   20.199991   12.120000
    8.079991   20.199991   20.199991
   16.160007    4.040008    4.040008
   16.160007    4.040008   12.120000
   16.160007    4.040008   20.199991
   16.160007   12.120000    4.040008
   16.160007   12.120000   12.120000
   16.160007   12.120000   20.199991
    0.000000    4.040008    4.040008
   24.240000    4.040008    4.040008
    0.000000    4.040008   12.120000
   24.240000    4.040008   12.120000
    0.000000    4.040008   20.199991
   24.240000    4.040008   20.199991
    0.000000   20.199991    4.040008
   24.240000   20.199991    4.040008
    0.000000   20.199991   12.120000
   24.240000   20.199991   12.120000
    0.000000   20.199991   20.199991
   24.240000   20.199991   20.199991
   10.100008    6.060000    4.040008
   10.100008    6.060000   12.120000
   10.100008    6.060000   20.199991
   10.100008   14.139992    4.040008
   10.100008   14.139992   12.120000
   10.100008   14.139992   20.199991
   10.100008   22.220007    4.040008
   10.100008   22.220007   12.120000
   10.100008   22.220007   20.199991
   18.180000    6.060000    4.040008
   18.180000    6.060000   12.120000
   18.180000    6.060000   20.199991
   18.180000   14.139992    4.040008
   18.180000   14.139992   12.120000
   18.180000   14.139992   20.199991
    2.019992   14.139992    4.040008
    2.019992   14.139992   12.120000
    2.019992   14.139992   20.199991
    2.019992   22.220007    4.040008
    2.019992   22.220007   12.120000
    2.019992   22.220007   20.199991
    4.040008   18.180000    6.060000
    4.040008   18.180000   14.139992
    4.040008   18.180000   22.220007
    4.040008    2.019992    6.060000
    4.040008    2.019992   14.139992
    4.040008    2.019992   22.220007
   12.120000   10.100008    6.060000
   12.120000   10.100008   14.139992
   12.120000   10.100008   22.220007
   20.199991    2.019992    6.060000
   20.199991    2.019992   14.139992
   20.199991    2.019992   22.220007
    6.060000    8.079991    6.060000
    6.060000    8.079991   14.139992
    6.060000    8.079991   22.220007
    6.060000    0.000000    6.060000
    6.060000   24.240000    6.060000
    6.060000    0.000000   14.139992
    6.060000   24.240000   14.139992
    6.060000    0.000000   22.220007
    6.060000   24.240000   22.220007
   14.139992   16.160007    6.060000
   14.139992   16.160007   14.139992
   14.139992   16.160007   22.220007
   14.139992   24.240000    6.060000
   14.139992   24.240000   14.139992
   14.139992   24.240000   22.220007
   22.220007    8.079991    6.060000
   22.220007    8.079991   14.139992
   22.220007    8.079991   22.220007
   22.220007    0.000000    6.060000
   22.220007   24.240000    6.060000
   22.220007    0.000000   14.139992
   22.220007   24.240000   14.139992
   22.220007    0.000000   22.220007
   22.220007   24.240000   22.220007
    8.079991    6.060000    6.060000
    8.079991    6.060000   14.139992
    8.079991    6.060000   22.220007
    8.079991   22.220007    6.060000
    8.079991   22.220007   14.139992
    8.079991   22.220007   22.220007
   16.160007   14.139992    6.060000
   16.160007   14.139992   14.139992
   16.160007   14.139992   22.220007
    0.000000    6.060000    6.060000
   24.240000    6.060000    6.060000
    0.000000    6.060000   14.139992
   24.240000    6.060000   14.139992
    0.000000    6.060000   22.220007
   24.240000    6.060000   22.220007
    0.000000   14.139992    6.060000
   24.240000   14.139992    6.060000
    0.000000   14.139992   14.139992
   24.240000   14.139992   14.139992
    0.000000   14.139992   22.220007
   24.240000   14.139992   22.220007
    0.000000   22.220007    6.060000
   24.240000   22.220007    6.060000
    0.000000   22.220007   14.139992
   24.240000   22.220007   14.139992
    0.000000   22.220007   22.220007
   24.240000   22.220007   22.220007
   10.100008   12.120000    6.060000
   10.100008   12.120000   14.139992
   10.100008   12.120000   22.220007
   18.180000    4.040008    6.060000
   18.180000    4.040008   14.139992
   18.180000    4.040008   22.220007
    2.019992    4.040008    6.060000
    2.019992    4.040008   14.139992
    2.019992    4.040008   22.220007
    2.019992   20.199991    6.060000
    2.019992   20.199991   14.139992
    2.019992   20.199991   22.220007
    4.040008   20.199991    8.079991
    4.040008   20.199991   16.160007
    4.040008   20.199991    0.000000
    4.040008   20.199991   24.240000
   12.120000   12.120000    8.079991
   12.120000   12.120000   16.160007
   12.120000   12.120000    0.000000
   12.120000   12.120000   24.240000
   20.199991    4.040008    8.079991
   20.199991    4.040008   16.160007
   20.199991    4.040008    0.000000
   20.199991    4.040008   24.240000
    6.060000   22.220007    8.079991
    6.060000   22.220007   16.160007
    6.060000   22.220007    0.000000
    6.060000   22.220007   24.240000
   14.139992   14.139992    8.079991
   14.139992   14.139992   16.160007
   14.139992   14.139992    0.000000
   14.139992   14.139992   24.240000
   22.220007    6.060000    8.079991
   22.220007    6.060000   16.160007
   22.220007    6.060000    0.000000
   22.220007    6.060000   24.240000
   22.220007   22.220007    8.079991
   22.220007   22.220007   16.160007
   22.220007   22.220007    0.000000
   22.220007   22.220007   24.240000
    8.079991    8.079991    8.079991
    8.079991    8.079991   16.160007
    8.079991    8.079991    0.000000
    8.079991    8.079991   24.240000
    8.079991    0.000000    8.079991
    8.079991   24.240000    8.079991
    8.079991    0.000000   16.160007
    8.079991   24.240000   16.160007
    8.079991    0.000000    0.000000
    8.079991    0.000000   24.240000
    8.079991   24.240000    0.000000
    8.079991   24.240000   24.240000
   16.160007   16.160007    8.079991
   16.160007   16.160007   16.160007
   16.160007   16.160007    0.000000
   16.160007   16.160007   24.240000
   16.160007    0.000000    8.079991
   16.160007   24.240000    8.079991
   16.160007    0.000000   16.160007
   16.160007   24.240000   16.160007
   16.160007    0.000000    0.000000
   16.160007    0.000000   24.240000
   16.160007   24.240000    0.000000
   16.160007   24.240000   24.240000
    0.000000    8.079991    8.079991
   24.240000    8.079991    8.079991
    0.000000    8.079991   16.160007
   24.240000    8.079991   16.160007
    0.000000    8.079991    0.000000
    0.000000    8.079991   24.240000
   24.240000    8.079991    0.000000
   24.240000    8.079991   24.240000
    0.000000   16.160007    8.079991
   24.240000   16.160007    8.079991
    0.000000   16.160007   16.160007
   24.240000   16.160007   16.160007
    0.000000   16.160007    0.000000
    0.000000   16.160007   24.240000
   24.240000   16.160007    0.000000
   24.240000   16.160007   24.240000
    0.000000    0.000000    8.079991
    0.000000   24.240000    8.079991
   24.240000    0.000000    8.079991
   24.240000   24.240000    8.079991
    0.000000    0.000000   16.160007
    0.000000   24.240000   16.160007
   24.240000    0.000000   16.160007
   24.240000   24.240000   16.160007
    0.000000    0.000000    0.000000
    0.000000    0.000000   24.240000
    0.000000   24.240000    0.000000
    0.000000   24.240000   24.240000
   24.240000    0.000000    0.000000
   24.240000    0.000000   24.240000
   24.240000   24.240000    0.000000
   24.240000   24.240000   24.240000
   10.100008   10.100008    8.079991
   10.100008   10.100008   16.160007
   10.100008   10.100008    0.000000
   10.100008   10.100008   24.240000
   18.180000    2.019992    8.079991
   18.180000    2.019992   16.160007
   18.180000    2.019992    0.000000
   18.180000    2.019992   24.240000
    2.019992   18.180000    8.079991
    2.019992   18.180000   16.160007
    2.019992   18.180000    0.000000
    2.019992   18.180000   24.240000
    2.019992    2.019992    8.079991
    2.019992    2.019992   16.160007
    2.019992    2.019992    0.000000
    2.019992    2.019992   24.240000
    4.040008   22.220007   10.100008
    4.040008   22.220007   18.180000
    4.040008   22.220007    2.019992
   12.120000   14.139992   10.100008
   12.120000   14.139992   18.180000
   12.120000   14.139992    2.019992
   20.199991    6.060000   10.100008
   20.199991    6.060000   18.180000
   20.199991    6.060000    2.019992
   20.199991   22.220007   10.100008
   20.199991   22.220007   18.180000
   20.199991   22.220007    2.019992
    6.060000   20.199991   10.100008
    6.060000   20.199991   18.180000
    6.060000   20.199991    2.019992
   14.139992   12.120000   10.100008
   14.139992   12.120000   18.180000
   14.139992   12.120000    2.019992
   22.220007    4.040008   10.100008
   22.220007    4.040008   18.180000
   22.220007    4.040008    2.019992
   22.220007   20.199991   10.100008
   22.220007   20.199991   18.180000
   22.220007   20.199991    2.019992
    8.079991   10.100008   10.100008
    8.079991   10.100008   18.180000
    8.079991   10.100008    2.019992
   16.160007   18.180000   10.100008
   16.160007   18.180000   18.180000
   16.160007   18.180000    2.019992
   16.160007    2.019992   10.100008
   16.160007    2.019992   18.180000
   16.160007    2.019992    2.019992
    0.000000   10.100008   10.100008
   24.240000   10.100008   10.100008
    0.000000   10.100008   18.180000
   24.240000   10.100008   18.180000
    0.000000   10.100008    2.019992
   24.240000   10.100008    2.019992
    0.000000   18.180000   10.100008
   24.240000   18.180000   10.100008
    0.000000   18.180000   18.180000
   24.240000   18.180000   18.180000
    0.000000   18.180000    2.019992
   24.240000   18.180000    2.019992
    0.000000    2.019992   10.100008
   24.240000    2.019992   10.100008
    0.000000    2.019992   18.180000
   24.240000    2.019992   18.180000
    0.000000    2.019992    2.019992
   24.240000    2.019992    2.019992
   10.100008    8.079991   10.100008
   10.100008    8.079991   18.180000
   10.100008    8.079991    2.019992
   10.100008    0.000000   10.100008
   10.100008   24.240000   10.100008
   10.100008    0.000000   18.180000
   10.100008   24.240000   18.180000
   10.100008    0.000000    2.019992
   10.100008   24.240000    2.019992
   18.180000   16.160007   10.100008
   18.180000   16.160007   18.180000
   18.180000   16.160007    2.019992
   18.180000    0.000000   10.100008
   18.180000   24.240000   10.100008
   18.180000    0.000000   18.180000
   18.180000   24.240000   18.180000
   18.180000    0.000000    2.019992
   18.180000   24.240000    2.019992
    2.019992   16.160007   10.100008
    2.019992   16.160007   18.180000
    2.019992   16.160007    2.019992
    2.019992    0.000000   10.100008
    2.019992   24.240000   10.100008
    2.019992    0.000000   18.180000
    2.019992   24.240000   18.180000
     2.019992    0.000000    2.019992
     2.019992   24.240000    2.019992
     4.040008   22.220007    4.040008
     4.040008   22.220007   12.120000
     4.040008   22.220007   20.199991
    12.120000   14.139992    4.040008
    12.120000   14.139992   12.120000
    12.120000   14.139992   20.199991
    20.199991    6.060000    4.040008
    20.199991    6.060000   12.120000
    20.199991    6.060000   20.199991
    20.199991   22.220007    4.040008
    20.199991   22.220007   12.120000
    20.199991   22.220007   20.199991
     4.040008   18.180000    4.040008
     4.040008   18.180000   12.120000
     4.040008   18.180000   20.199991
     4.040008    2.019992    4.040008
     4.040008    2.019992   12.120000
     4.040008    2.019992   20.199991
    12.120000   10.100008    4.040008
    12.120000   10.100008   12.120000
    12.120000   10.100008   20.199991
    20.199991    2.019992    4.040008
    20.199991    2.019992   12.120000
    20.199991    2.019992   20.199991
     6.060000   20.199991    4.040008
     6.060000   20.199991   12.120000
     6.060000   20.199991   20.199991
    14.139992   12.120000    4.040008
    14.139992   12.120000   12.120000
    14.139992   12.120000   20.199991
    22.220007    4.040008    4.040008
    22.220007    4.040008   12.120000
    22.220007    4.040008   20.199991
    22.220007   20.199991    4.040008
    22.220007   20.199991   12.120000
    22.220007   20.199991   20.199991
     6.060000    8.079991    4.040008
     6.060000    8.079991   12.120000
     6.060000    8.079991   20.199991
     6.060000    0.000000    4.040008
     6.060000   24.240000    4.040008
     6.060000    0.000000   12.120000
     6.060000   24.240000   12.120000
     6.060000    0.000000   20.199991
     6.060000   24.240000   20.199991
    14.139992   16.160007    4.040008
    14.139992   16.160007   12.120000
    14.139992   16.160007   20.199991
    14.139992   24.240000    4.040008
    14.139992   24.240000   12.120000
    14.139992   24.240000   20.199991
    22.220007    8.079991    4.040008
    22.220007    8.079991   12.120000
    22.220007    8.079991   20.199991
    22.220007    0.000000    4.040008
    22.220007   24.240000    4.040008
    22.220007    0.000000   12.120000
    22.220007   24.240000   12.120000
    22.220007    0.000000   20.199991
    22.220007   24.240000   20.199991
     8.079991    6.060000    4.040008
     8.079991    6.060000   12.120000
     8.079991    6.060000   20.199991
     8.079991   22.220007    4.040008
     8.079991   22.220007   12.120000
     8.079991   22.220007   20.199991
    16.160007   14.139992    4.040008
    16.160007   14.139992   12.120000
    16.160007   14.139992   20.199991
     0.000000    6.060000    4.040008
    24.240000    6.060000    4.040008
     0.000000    6.060000   12.120000
    24.240000    6.060000   12.120000
     0.000000    6.060000   20.199991
    24.240000    6.060000   20.199991
     0.000000   14.139992    4.040008
    24.240000   14.139992    4.040008
     0.000000   14.139992   12.120000
    24.240000   14.139992   12.120000
     0.000000   14.139992   20.199991
    24.240000   14.139992   20.199991
     0.000000   22.220007    4.040008
    24.240000   22.220007    4.040008
     0.000000   22.220007   12.120000
    24.240000   22.220007   12.120000
     0.000000   22.220007   20.199991
    24.240000   22.220007   20.199991
     8.079991   10.100008    4.040008
     8.079991   10.100008   12.120000
     8.079991   10.100008   20.199991
    16.160007   18.180000    4.040008
    16.160007   18.180000   12.120000
    16.160007   18.180000   20.199991
    16.160007    2.019992    4.040008
    16.160007    2.019992   12.120000
    16.160007    2.019992   20.199991
     0.000000   10.100008    4.040008
    24.240000   10.100008    4.040008
     0.000000   10.100008   12.120000
    24.240000   10.100008   12.120000
     0.000000   10.100008   20.199991
    24.240000   10.100008   20.199991
     0.000000   18.180000    4.040008
    24.240000   18.180000    4.040008
     0.000000   18.180000   12.120000
    24.240000   18.180000   12.120000
     0.000000   18.180000   20.199991
    24.240000   18.180000   20.199991
     0.000000    2.019992    4.040008
    24.240000    2.019992    4.040008
     0.000000    2.019992   12.120000
    24.240000    2.019992   12.120000
     0.000000    2.019992   20.199991
    24.240000    2.019992   20.199991
    10.100008   12.120000    4.040008
    10.100008   12.120000   12.120000
    10.100008   12.120000   20.199991
    18.180000    4.040008    4.040008
    18.180000    4.040008   12.120000
    18.180000    4.040008   20.199991
     2.019992    4.040008    4.040008
     2.019992    4.040008   12.120000
     2.019992    4.040008   20.199991
     2.019992   20.199991    4.040008
     2.019992   20.199991   12.120000
     2.019992   20.199991   20.199991
    10.100008    8.079991    4.040008
    10.100008    8.079991   12.120000
    10.100008    8.079991   20.199991
    10.100008    0.000000    4.040008
    10.100008   24.240000    4.040008
    10.100008    0.000000   12.120000
    10.100008   24.240000   12.120000
    10.100008    0.000000   20.199991
    10.100008   24.240000   20.199991
    18.180000   16.160007    4.040008
    18.180000   16.160007   12.120000
    18.180000   16.160007   20.199991
    18.180000    0.000000    4.040008
    18.180000   24.240000    4.040008
    18.180000    0.000000   12.120000
    18.180000   24.240000   12.120000
    18.180000    0.000000   20.199991
    18.180000   24.240000   20.199991
     2.019992   16.160007    4.040008
     2.019992   16.160007   12.120000
     2.019992   16.160007   20.199991
     2.019992    0.000000    4.040008
     2.019992   24.240000    4.040008
     2.019992    0.000000   12.120000
     2.019992   24.240000   12.120000
     2.019992    0.000000   20.199991
     2.019992   24.240000   20.199991
     4.040008   20.199991    6.060000
     4.040008   20.199991   14.139992
     4.040008   20.199991   22.220007
    12.120000   12.120000    6.060000
    12.120000   12.120000   14.139992
    12.120000   12.120000   22.220007
    20.199991    4.040008    6.060000
    20.199991    4.040008   14.139992
    20.199991    4.040008   22.220007
     4.040008   16.160007    6.060000
     4.040008   16.160007   14.139992
     4.040008   16.160007   22.220007
     4.040008    0.000000    6.060000
     4.040008   24.240000    6.060000
     4.040008    0.000000   14.139992
     4.040008   24.240000   14.139992
     4.040008    0.000000   22.220007
     4.040008   24.240000   22.220007
    12.120000    8.079991    6.060000
    12.120000    8.079991   14.139992
    12.120000    8.079991   22.220007
    12.120000   16.160007    6.060000
    12.120000   16.160007   14.139992
    12.120000   16.160007   22.220007
    20.199991    8.079991    6.060000
    20.199991    8.079991   14.139992
    20.199991    8.079991   22.220007
    20.199991    0.000000    6.060000
    20.199991   24.240000    6.060000
    20.199991    0.000000   14.139992
    20.199991   24.240000   14.139992
    20.199991    0.000000   22.220007
    20.199991   24.240000   22.220007
     6.060000   22.220007    6.060000
     6.060000   22.220007   14.139992
     6.060000   22.220007   22.220007
    14.139992   14.139992    6.060000
    14.139992   14.139992   14.139992
    14.139992   14.139992   22.220007
    22.220007    6.060000    6.060000
    22.220007    6.060000   14.139992
    22.220007    6.060000   22.220007
    22.220007   22.220007    6.060000
    22.220007   22.220007   14.139992
    22.220007   22.220007   22.220007
     6.060000   10.100008    6.060000
     6.060000   10.100008   14.139992
     6.060000   10.100008   22.220007
     6.060000   18.180000    6.060000
     6.060000   18.180000   14.139992
     6.060000   18.180000   22.220007
    14.139992   10.100008    6.060000
    14.139992   10.100008   14.139992
    14.139992   10.100008   22.220007
    14.139992   18.180000    6.060000
    14.139992   18.180000   14.139992
    14.139992   18.180000   22.220007
    22.220007   10.100008    6.060000
    22.220007   10.100008   14.139992
    22.220007   10.100008   22.220007
    22.220007    2.019992    6.060000
    22.220007    2.019992   14.139992
    22.220007    2.019992   22.220007
     8.079991   12.120000    6.060000
     8.079991   12.120000   14.139992
     8.079991   12.120000   22.220007
     8.079991   20.199991    6.060000
     8.079991   20.199991   14.139992
     8.079991   20.199991   22.220007
    16.160007    4.040008    6.060000
    16.160007    4.040008   14.139992
    16.160007    4.040008   22.220007
    16.160007   12.120000    6.060000
    16.160007   12.120000   14.139992
    16.160007   12.120000   22.220007
     0.000000    4.040008    6.060000
    24.240000    4.040008    6.060000
     0.000000    4.040008   14.139992
    24.240000    4.040008   14.139992
     0.000000    4.040008   22.220007
    24.240000    4.040008   22.220007
     0.000000   20.199991    6.060000
    24.240000   20.199991    6.060000
     0.000000   20.199991   14.139992
    24.240000   20.199991   14.139992
     0.000000   20.199991   22.220007
    24.240000   20.199991   22.220007
     8.079991    8.079991    6.060000
     8.079991    8.079991   14.139992
     8.079991    8.079991   22.220007
     8.079991    0.000000    6.060000
     8.079991   24.240000    6.060000
     8.079991    0.000000   14.139992
     8.079991   24.240000   14.139992
     8.079991    0.000000   22.220007
     8.079991   24.240000   22.220007
    16.160007   16.160007    6.060000
    16.160007   16.160007   14.139992
    16.160007   16.160007   22.220007
    16.160007    0.000000    6.060000
    16.160007   24.240000    6.060000
    16.160007    0.000000   14.139992
    16.160007   24.240000   14.139992
    16.160007    0.000000   22.220007
    16.160007   24.240000   22.220007
     0.000000    8.079991    6.060000
    24.240000    8.079991    6.060000
     0.000000    8.079991   14.139992
    24.240000    8.079991   14.139992
     0.000000    8.079991   22.220007
    24.240000    8.079991   22.220007
     0.000000   16.160007    6.060000
    24.240000   16.160007    6.060000
     0.000000   16.160007   14.139992
    24.240000   16.160007   14.139992
     0.000000   16.160007   22.220007
    24.240000   16.160007   22.220007
     0.000000    0.000000    6.060000
     0.000000   24.240000    6.060000
    24.240000    0.000000    6.060000
    24.240000   24.240000    6.060000
     0.000000    0.000000   14.139992
     0.000000   24.240000   14.139992
    24.240000    0.000000   14.139992
    24.240000   24.240000   14.139992
     0.000000    0.000000   22.220007
     0.000000   24.240000   22.220007
    24.240000    0.000000   22.220007
    24.240000   24.240000   22.220007
    10.100008    6.060000    6.060000
    10.100008    6.060000   14.139992
    10.100008    6.060000   22.220007
    10.100008   14.139992    6.060000
    10.100008   14.139992   14.139992
    10.100008   14.139992   22.220007
    10.100008   22.220007    6.060000
    10.100008   22.220007   14.139992
    10.100008   22.220007   22.220007
    18.180000    6.060000    6.060000
    18.180000    6.060000   14.139992
    18.180000    6.060000   22.220007
    18.180000   14.139992    6.060000
    18.180000   14.139992   14.139992
    18.180000   14.139992   22.220007
     2.019992   14.139992    6.060000
     2.019992   14.139992   14.139992
     2.019992   14.139992   22.220007
     2.019992   22.220007    6.060000
     2.019992   22.220007   14.139992
     2.019992   22.220007   22.220007
    10.100008   10.100008    6.060000
    10.100008   10.100008   14.139992
    10.100008   10.100008   22.220007
    18.180000    2.019992    6.060000
    18.180000    2.019992   14.139992
    18.180000    2.019992   22.220007
     2.019992   18.180000    6.060000
     2.019992   18.180000   14.139992
     2.019992   18.180000   22.220007
     2.019992    2.019992    6.060000
     2.019992    2.019992   14.139992
     2.019992    2.019992   22.220007
     4.040008   22.220007    8.079991
     4.040008   22.220007   16.160007
     4.040008   22.220007    0.000000
     4.040008   22.220007   24.240000
    12.120000   14.139992    8.079991
    12.120000   14.139992   16.160007
    12.120000   14.139992    0.000000
    12.120000   14.139992   24.240000
    20.199991    6.060000    8.079991
    20.199991    6.060000   16.160007
    20.199991    6.060000    0.000000
    20.199991    6.060000   24.240000
    20.199991   22.220007    8.079991
    20.199991   22.220007   16.160007
    20.199991   22.220007    0.000000
    20.199991   22.220007   24.240000
     4.040008   18.180000    8.079991
     4.040008   18.180000   16.160007
     4.040008   18.180000    0.000000
     4.040008   18.180000   24.240000
     4.040008    2.019992    8.079991
     4.040008    2.019992   16.160007
     4.040008    2.019992    0.000000
     4.040008    2.019992   24.240000
    12.120000   10.100008    8.079991
    12.120000   10.100008   16.160007
    12.120000   10.100008    0.000000
    12.120000   10.100008   24.240000