Li
1.0
8.08 0.00 0.00
0.00 8.08 0.00
0.00 0.00 8.08
Li 
8 
Selective Dynamics
Direct
3.375000 4.375000 1.375000 (A Cation 8a) 
3.875000 3.875000 2.375000 (A Cation 8a) 
3.625000 2.625000 0.625000 (A Cation 8a) 
3.125000 0.125000 1.625000 (A Cation 8a) 
3.875000 1.375000 2.875000 (A Cation 8a) 
3.375000 3.875000 3.875000 (A Cation 8a) 
3.125000 2.625000 4.125000 (A Cation 8a) 
3.625000 1.125000 0.125000 (A Cation 8a) 
