Li13824
1.0
96.960000 0.000000 0.000000
0.000000 96.960000 0.000000
0.000000 0.000000 96.960000
Li
13824
Selective dynamics
direct
0.031250 0.031250 0.031250 F F F Li
0.031250 0.031250 0.114583 F F F Li
0.031250 0.031250 0.197917 F F F Li
0.031250 0.031250 0.281250 F F F Li
0.031250 0.031250 0.364583 F F F Li
0.031250 0.031250 0.447917 F F F Li
0.031250 0.031250 0.531250 F F F Li
0.031250 0.031250 0.614583 F F F Li
0.031250 0.031250 0.697917 F F F Li
0.031250 0.031250 0.781250 F F F Li
0.031250 0.031250 0.864583 F F F Li
0.031250 0.031250 0.947917 F F F Li
0.031250 0.114583 0.031250 F F F Li
0.031250 0.114583 0.114583 F F F Li
0.031250 0.114583 0.197917 F F F Li
0.031250 0.114583 0.281250 F F F Li
0.031250 0.114583 0.364583 F F F Li
0.031250 0.114583 0.447917 F F F Li
0.031250 0.114583 0.531250 F F F Li
0.031250 0.114583 0.614583 F F F Li
0.031250 0.114583 0.697917 F F F Li
0.031250 0.114583 0.781250 F F F Li
0.031250 0.114583 0.864583 F F F Li
0.031250 0.114583 0.947917 F F F Li
0.031250 0.197917 0.031250 F F F Li
0.031250 0.197917 0.114583 F F F Li
0.031250 0.197917 0.197917 F F F Li
0.031250 0.197917 0.281250 F F F Li
0.031250 0.197917 0.364583 F F F Li
0.031250 0.197917 0.447917 F F F Li
0.031250 0.197917 0.531250 F F F Li
0.031250 0.197917 0.614583 F F F Li
0.031250 0.197917 0.697917 F F F Li
0.031250 0.197917 0.781250 F F F Li
0.031250 0.197917 0.864583 F F F Li
0.031250 0.197917 0.947917 F F F Li
0.031250 0.281250 0.031250 F F F Li
0.031250 0.281250 0.114583 F F F Li
0.031250 0.281250 0.197917 F F F Li
0.031250 0.281250 0.281250 F F F Li
0.031250 0.281250 0.364583 F F F Li
0.031250 0.281250 0.447917 F F F Li
0.031250 0.281250 0.531250 F F F Li
0.031250 0.281250 0.614583 F F F Li
0.031250 0.281250 0.697917 F F F Li
0.031250 0.281250 0.781250 F F F Li
0.031250 0.281250 0.864583 F F F Li
0.031250 0.281250 0.947917 F F F Li
0.031250 0.364583 0.031250 F F F Li
0.031250 0.364583 0.114583 F F F Li
0.031250 0.364583 0.197917 F F F Li
0.031250 0.364583 0.281250 F F F Li
0.031250 0.364583 0.364583 F F F Li
0.031250 0.364583 0.447917 F F F Li
0.031250 0.364583 0.531250 F F F Li
0.031250 0.364583 0.614583 F F F Li
0.031250 0.364583 0.697917 F F F Li
0.031250 0.364583 0.781250 F F F Li
0.031250 0.364583 0.864583 F F F Li
0.031250 0.364583 0.947917 F F F Li
0.031250 0.447917 0.031250 F F F Li
0.031250 0.447917 0.114583 F F F Li
0.031250 0.447917 0.197917 F F F Li
0.031250 0.447917 0.281250 F F F Li
0.031250 0.447917 0.364583 F F F Li
0.031250 0.447917 0.447917 F F F Li
0.031250 0.447917 0.531250 F F F Li
0.031250 0.447917 0.614583 F F F Li
0.031250 0.447917 0.697917 F F F Li
0.031250 0.447917 0.781250 F F F Li
0.031250 0.447917 0.864583 F F F Li
0.031250 0.447917 0.947917 F F F Li
0.031250 0.531250 0.031250 F F F Li
0.031250 0.531250 0.114583 F F F Li
0.031250 0.531250 0.197917 F F F Li
0.031250 0.531250 0.281250 F F F Li
0.031250 0.531250 0.364583 F F F Li
0.031250 0.531250 0.447917 F F F Li
0.031250 0.531250 0.531250 F F F Li
0.031250 0.531250 0.614583 F F F Li
0.031250 0.531250 0.697917 F F F Li
0.031250 0.531250 0.781250 F F F Li
0.031250 0.531250 0.864583 F F F Li
0.031250 0.531250 0.947917 F F F Li
0.031250 0.614583 0.031250 F F F Li
0.031250 0.614583 0.114583 F F F Li
0.031250 0.614583 0.197917 F F F Li
0.031250 0.614583 0.281250 F F F Li
0.031250 0.614583 0.364583 F F F Li
0.031250 0.614583 0.447917 F F F Li
0.031250 0.614583 0.531250 F F F Li
0.031250 0.614583 0.614583 F F F Li
0.031250 0.614583 0.697917 F F F Li
0.031250 0.614583 0.781250 F F F Li
0.031250 0.614583 0.864583 F F F Li
0.031250 0.614583 0.947917 F F F Li
0.031250 0.697917 0.031250 F F F Li
0.031250 0.697917 0.114583 F F F Li
0.031250 0.697917 0.197917 F F F Li
0.031250 0.697917 0.281250 F F F Li
0.031250 0.697917 0.364583 F F F Li
0.031250 0.697917 0.447917 F F F Li
0.031250 0.697917 0.531250 F F F Li
0.031250 0.697917 0.614583 F F F Li
0.031250 0.697917 0.697917 F F F Li
0.031250 0.697917 0.781250 F F F Li
0.031250 0.697917 0.864583 F F F Li
0.031250 0.697917 0.947917 F F F Li
0.031250 0.781250 0.031250 F F F Li
0.031250 0.781250 0.114583 F F F Li
0.031250 0.781250 0.197917 F F F Li
0.031250 0.781250 0.281250 F F F Li
0.031250 0.781250 0.364583 F F F Li
0.031250 0.781250 0.447917 F F F Li
0.031250 0.781250 0.531250 F F F Li
0.031250 0.781250 0.614583 F F F Li
0.031250 0.781250 0.697917 F F F Li
0.031250 0.781250 0.781250 F F F Li
0.031250 0.781250 0.864583 F F F Li
0.031250 0.781250 0.947917 F F F Li
0.031250 0.864583 0.031250 F F F Li
0.031250 0.864583 0.114583 F F F Li
0.031250 0.864583 0.197917 F F F Li
0.031250 0.864583 0.281250 F F F Li
0.031250 0.864583 0.364583 F F F Li
0.031250 0.864583 0.447917 F F F Li
0.031250 0.864583 0.531250 F F F Li
0.031250 0.864583 0.614583 F F F Li
0.031250 0.864583 0.697917 F F F Li
0.031250 0.864583 0.781250 F F F Li
0.031250 0.864583 0.864583 F F F Li
0.031250 0.864583 0.947917 F F F Li
0.031250 0.947917 0.031250 F F F Li
0.031250 0.947917 0.114583 F F F Li
0.031250 0.947917 0.197917 F F F Li
0.031250 0.947917 0.281250 F F F Li
0.031250 0.947917 0.364583 F F F Li
0.031250 0.947917 0.447917 F F F Li
0.031250 0.947917 0.531250 F F F Li
0.031250 0.947917 0.614583 F F F Li
0.031250 0.947917 0.697917 F F F Li
0.031250 0.947917 0.781250 F F F Li
0.031250 0.947917 0.864583 F F F Li
0.031250 0.947917 0.947917 F F F Li
0.114583 0.031250 0.031250 F F F Li
0.114583 0.031250 0.114583 F F F Li
0.114583 0.031250 0.197917 F F F Li
0.114583 0.031250 0.281250 F F F Li
0.114583 0.031250 0.364583 F F F Li
0.114583 0.031250 0.447917 F F F Li
0.114583 0.031250 0.531250 F F F Li
0.114583 0.031250 0.614583 F F F Li
0.114583 0.031250 0.697917 F F F Li
0.114583 0.031250 0.781250 F F F Li
0.114583 0.031250 0.864583 F F F Li
0.114583 0.031250 0.947917 F F F Li
0.114583 0.114583 0.031250 F F F Li
0.114583 0.114583 0.114583 F F F Li
0.114583 0.114583 0.197917 F F F Li
0.114583 0.114583 0.281250 F F F Li
0.114583 0.114583 0.364583 F F F Li
0.114583 0.114583 0.447917 F F F Li
0.114583 0.114583 0.531250 F F F Li
0.114583 0.114583 0.614583 F F F Li
0.114583 0.114583 0.697917 F F F Li
0.114583 0.114583 0.781250 F F F Li
0.114583 0.114583 0.864583 F F F Li
0.114583 0.114583 0.947917 F F F Li
0.114583 0.197917 0.031250 F F F Li
0.114583 0.197917 0.114583 F F F Li
0.114583 0.197917 0.197917 F F F Li
0.114583 0.197917 0.281250 F F F Li
0.114583 0.197917 0.364583 F F F Li
0.114583 0.197917 0.447917 F F F Li
0.114583 0.197917 0.531250 F F F Li
0.114583 0.197917 0.614583 F F F Li
0.114583 0.197917 0.697917 F F F Li
0.114583 0.197917 0.781250 F F F Li
0.114583 0.197917 0.864583 F F F Li
0.114583 0.197917 0.947917 F F F Li
0.114583 0.281250 0.031250 F F F Li
0.114583 0.281250 0.114583 F F F Li
0.114583 0.281250 0.197917 F F F Li
0.114583 0.281250 0.281250 F F F Li
0.114583 0.281250 0.364583 F F F Li
0.114583 0.281250 0.447917 F F F Li
0.114583 0.281250 0.531250 F F F Li
0.114583 0.281250 0.614583 F F F Li
0.114583 0.281250 0.697917 F F F Li
0.114583 0.281250 0.781250 F F F Li
0.114583 0.281250 0.864583 F F F Li
0.114583 0.281250 0.947917 F F F Li
0.114583 0.364583 0.031250 F F F Li
0.114583 0.364583 0.114583 F F F Li
0.114583 0.364583 0.197917 F F F Li
0.114583 0.364583 0.281250 F F F Li
0.114583 0.364583 0.364583 F F F Li
0.114583 0.364583 0.447917 F F F Li
0.114583 0.364583 0.531250 F F F Li
0.114583 0.364583 0.614583 F F F Li
0.114583 0.364583 0.697917 F F F Li
0.114583 0.364583 0.781250 F F F Li
0.114583 0.364583 0.864583 F F F Li
0.114583 0.364583 0.947917 F F F Li
0.114583 0.447917 0.031250 F F F Li
0.114583 0.447917 0.114583 F F F Li
0.114583 0.447917 0.197917 F F F Li
0.114583 0.447917 0.281250 F F F Li
0.114583 0.447917 0.364583 F F F Li
0.114583 0.447917 0.447917 F F F Li
0.114583 0.447917 0.531250 F F F Li
0.114583 0.447917 0.614583 F F F Li
0.114583 0.447917 0.697917 F F F Li
0.114583 0.447917 0.781250 F F F Li
0.114583 0.447917 0.864583 F F F Li
0.114583 0.447917 0.947917 F F F Li
0.114583 0.531250 0.031250 F F F Li
0.114583 0.531250 0.114583 F F F Li
0.114583 0.531250 0.197917 F F F Li
0.114583 0.531250 0.281250 F F F Li
0.114583 0.531250 0.364583 F F F Li
0.114583 0.531250 0.447917 F F F Li
0.114583 0.531250 0.531250 F F F Li
0.114583 0.531250 0.614583 F F F Li
0.114583 0.531250 0.697917 F F F Li
0.114583 0.531250 0.781250 F F F Li
0.114583 0.531250 0.864583 F F F Li
0.114583 0.531250 0.947917 F F F Li
0.114583 0.614583 0.031250 F F F Li
0.114583 0.614583 0.114583 F F F Li
0.114583 0.614583 0.197917 F F F Li
0.114583 0.614583 0.281250 F F F Li
0.114583 0.614583 0.364583 F F F Li
0.114583 0.614583 0.447917 F F F Li
0.114583 0.614583 0.531250 F F F Li
0.114583 0.614583 0.614583 F F F Li
0.114583 0.614583 0.697917 F F F Li
0.114583 0.614583 0.781250 F F F Li
0.114583 0.614583 0.864583 F F F Li
0.114583 0.614583 0.947917 F F F Li
0.114583 0.697917 0.031250 F F F Li
0.114583 0.697917 0.114583 F F F Li
0.114583 0.697917 0.197917 F F F Li
0.114583 0.697917 0.281250 F F F Li
0.114583 0.697917 0.364583 F F F Li
0.114583 0.697917 0.447917 F F F Li
0.114583 0.697917 0.531250 F F F Li
0.114583 0.697917 0.614583 F F F Li
0.114583 0.697917 0.697917 F F F Li
0.114583 0.697917 0.781250 F F F Li
0.114583 0.697917 0.864583 F F F Li
0.114583 0.697917 0.947917 F F F Li
0.114583 0.781250 0.031250 F F F Li
0.114583 0.781250 0.114583 F F F Li
0.114583 0.781250 0.197917 F F F Li
0.114583 0.781250 0.281250 F F F Li
0.114583 0.781250 0.364583 F F F Li
0.114583 0.781250 0.447917 F F F Li
0.114583 0.781250 0.531250 F F F Li
0.114583 0.781250 0.614583 F F F Li
0.114583 0.781250 0.697917 F F F Li
0.114583 0.781250 0.781250 F F F Li
0.114583 0.781250 0.864583 F F F Li
0.114583 0.781250 0.947917 F F F Li
0.114583 0.864583 0.031250 F F F Li
0.114583 0.864583 0.114583 F F F Li
0.114583 0.864583 0.197917 F F F Li
0.114583 0.864583 0.281250 F F F Li
0.114583 0.864583 0.364583 F F F Li
0.114583 0.864583 0.447917 F F F Li
0.114583 0.864583 0.531250 F F F Li
0.114583 0.864583 0.614583 F F F Li
0.114583 0.864583 0.697917 F F F Li
0.114583 0.864583 0.781250 F F F Li
0.114583 0.864583 0.864583 F F F Li
0.114583 0.864583 0.947917 F F F Li
0.114583 0.947917 0.031250 F F F Li
0.114583 0.947917 0.114583 F F F Li
0.114583 0.947917 0.197917 F F F Li
0.114583 0.947917 0.281250 F F F Li
0.114583 0.947917 0.364583 F F F Li
0.114583 0.947917 0.447917 F F F Li
0.114583 0.947917 0.531250 F F F Li
0.114583 0.947917 0.614583 F F F Li
0.114583 0.947917 0.697917 F F F Li
0.114583 0.947917 0.781250 F F F Li
0.114583 0.947917 0.864583 F F F Li
0.114583 0.947917 0.947917 F F F Li
0.197917 0.031250 0.031250 F F F Li
0.197917 0.031250 0.114583 F F F Li
0.197917 0.031250 0.197917 F F F Li
0.197917 0.031250 0.281250 F F F Li
0.197917 0.031250 0.364583 F F F Li
0.197917 0.031250 0.447917 F F F Li
0.197917 0.031250 0.531250 F F F Li
0.197917 0.031250 0.614583 F F F Li
0.197917 0.031250 0.697917 F F F Li
0.197917 0.031250 0.781250 F F F Li
0.197917 0.031250 0.864583 F F F Li
0.197917 0.031250 0.947917 F F F Li
0.197917 0.114583 0.031250 F F F Li
0.197917 0.114583 0.114583 F F F Li
0.197917 0.114583 0.197917 F F F Li
0.197917 0.114583 0.281250 F F F Li
0.197917 0.114583 0.364583 F F F Li
0.197917 0.114583 0.447917 F F F Li
0.197917 0.114583 0.531250 F F F Li
0.197917 0.114583 0.614583 F F F Li
0.197917 0.114583 0.697917 F F F Li
0.197917 0.114583 0.781250 F F F Li
0.197917 0.114583 0.864583 F F F Li
0.197917 0.114583 0.947917 F F F Li
0.197917 0.197917 0.031250 F F F Li
0.197917 0.197917 0.114583 F F F Li
0.197917 0.197917 0.197917 F F F Li
0.197917 0.197917 0.281250 F F F Li
0.197917 0.197917 0.364583 F F F Li
0.197917 0.197917 0.447917 F F F Li
0.197917 0.197917 0.531250 F F F Li
0.197917 0.197917 0.614583 F F F Li
0.197917 0.197917 0.697917 F F F Li
0.197917 0.197917 0.781250 F F F Li
0.197917 0.197917 0.864583 F F F Li
0.197917 0.197917 0.947917 F F F Li
0.197917 0.281250 0.031250 F F F Li
0.197917 0.281250 0.114583 F F F Li
0.197917 0.281250 0.197917 F F F Li
0.197917 0.281250 0.281250 F F F Li
0.197917 0.281250 0.364583 F F F Li
0.197917 0.281250 0.447917 F F F Li
0.197917 0.281250 0.531250 F F F Li
0.197917 0.281250 0.614583 F F F Li
0.197917 0.281250 0.697917 F F F Li
0.197917 0.281250 0.781250 F F F Li
0.197917 0.281250 0.864583 F F F Li
0.197917 0.281250 0.947917 F F F Li
0.197917 0.364583 0.031250 F F F Li
0.197917 0.364583 0.114583 F F F Li
0.197917 0.364583 0.197917 F F F Li
0.197917 0.364583 0.281250 F F F Li
0.197917 0.364583 0.364583 F F F Li
0.197917 0.364583 0.447917 F F F Li
0.197917 0.364583 0.531250 F F F Li
0.197917 0.364583 0.614583 F F F Li
0.197917 0.364583 0.697917 F F F Li
0.197917 0.364583 0.781250 F F F Li
0.197917 0.364583 0.864583 F F F Li
0.197917 0.364583 0.947917 F F F Li
0.197917 0.447917 0.031250 F F F Li
0.197917 0.447917 0.114583 F F F Li
0.197917 0.447917 0.197917 F F F Li
0.197917 0.447917 0.281250 F F F Li
0.197917 0.447917 0.364583 F F F Li
0.197917 0.447917 0.447917 F F F Li
0.197917 0.447917 0.531250 F F F Li
0.197917 0.447917 0.614583 F F F Li
0.197917 0.447917 0.697917 F F F Li
0.197917 0.447917 0.781250 F F F Li
0.197917 0.447917 0.864583 F F F Li
0.197917 0.447917 0.947917 F F F Li
0.197917 0.531250 0.031250 F F F Li
0.197917 0.531250 0.114583 F F F Li
0.197917 0.531250 0.197917 F F F Li
0.197917 0.531250 0.281250 F F F Li
0.197917 0.531250 0.364583 F F F Li
0.197917 0.531250 0.447917 F F F Li
0.197917 0.531250 0.531250 F F F Li
0.197917 0.531250 0.614583 F F F Li
0.197917 0.531250 0.697917 F F F Li
0.197917 0.531250 0.781250 F F F Li
0.197917 0.531250 0.864583 F F F Li
0.197917 0.531250 0.947917 F F F Li
0.197917 0.614583 0.031250 F F F Li
0.197917 0.614583 0.114583 F F F Li
0.197917 0.614583 0.197917 F F F Li
0.197917 0.614583 0.281250 F F F Li
0.197917 0.614583 0.364583 F F F Li
0.197917 0.614583 0.447917 F F F Li
0.197917 0.614583 0.531250 F F F Li
0.197917 0.614583 0.614583 F F F Li
0.197917 0.614583 0.697917 F F F Li
0.197917 0.614583 0.781250 F F F Li
0.197917 0.614583 0.864583 F F F Li
0.197917 0.614583 0.947917 F F F Li
0.197917 0.697917 0.031250 F F F Li
0.197917 0.697917 0.114583 F F F Li
0.197917 0.697917 0.197917 F F F Li
0.197917 0.697917 0.281250 F F F Li
0.197917 0.697917 0.364583 F F F Li
0.197917 0.697917 0.447917 F F F Li
0.197917 0.697917 0.531250 F F F Li
0.197917 0.697917 0.614583 F F F Li
0.197917 0.697917 0.697917 F F F Li
0.197917 0.697917 0.781250 F F F Li
0.197917 0.697917 0.864583 F F F Li
0.197917 0.697917 0.947917 F F F Li
0.197917 0.781250 0.031250 F F F Li
0.197917 0.781250 0.114583 F F F Li
0.197917 0.781250 0.197917 F F F Li
0.197917 0.781250 0.281250 F F F Li
0.197917 0.781250 0.364583 F F F Li
0.197917 0.781250 0.447917 F F F Li
0.197917 0.781250 0.531250 F F F Li
0.197917 0.781250 0.614583 F F F Li
0.197917 0.781250 0.697917 F F F Li
0.197917 0.781250 0.781250 F F F Li
0.197917 0.781250 0.864583 F F F Li
0.197917 0.781250 0.947917 F F F Li
0.197917 0.864583 0.031250 F F F Li
0.197917 0.864583 0.114583 F F F Li
0.197917 0.864583 0.197917 F F F Li
0.197917 0.864583 0.281250 F F F Li
0.197917 0.864583 0.364583 F F F Li
0.197917 0.864583 0.447917 F F F Li
0.197917 0.864583 0.531250 F F F Li
0.197917 0.864583 0.614583 F F F Li
0.197917 0.864583 0.697917 F F F Li
0.197917 0.864583 0.781250 F F F Li
0.197917 0.864583 0.864583 F F F Li
0.197917 0.864583 0.947917 F F F Li
0.197917 0.947917 0.031250 F F F Li
0.197917 0.947917 0.114583 F F F Li
0.197917 0.947917 0.197917 F F F Li
0.197917 0.947917 0.281250 F F F Li
0.197917 0.947917 0.364583 F F F Li
0.197917 0.947917 0.447917 F F F Li
0.197917 0.947917 0.531250 F F F Li
0.197917 0.947917 0.614583 F F F Li
0.197917 0.947917 0.697917 F F F Li
0.197917 0.947917 0.781250 F F F Li
0.197917 0.947917 0.864583 F F F Li
0.197917 0.947917 0.947917 F F F Li
0.281250 0.031250 0.031250 F F F Li
0.281250 0.031250 0.114583 F F F Li
0.281250 0.031250 0.197917 F F F Li
0.281250 0.031250 0.281250 F F F Li
0.281250 0.031250 0.364583 F F F Li
0.281250 0.031250 0.447917 F F F Li
0.281250 0.031250 0.531250 F F F Li
0.281250 0.031250 0.614583 F F F Li
0.281250 0.031250 0.697917 F F F Li
0.281250 0.031250 0.781250 F F F Li
0.281250 0.031250 0.864583 F F F Li
0.281250 0.031250 0.947917 F F F Li
0.281250 0.114583 0.031250 F F F Li
0.281250 0.114583 0.114583 F F F Li
0.281250 0.114583 0.197917 F F F Li
0.281250 0.114583 0.281250 F F F Li
0.281250 0.114583 0.364583 F F F Li
0.281250 0.114583 0.447917 F F F Li
0.281250 0.114583 0.531250 F F F Li
0.281250 0.114583 0.614583 F F F Li
0.281250 0.114583 0.697917 F F F Li
0.281250 0.114583 0.781250 F F F Li
0.281250 0.114583 0.864583 F F F Li
0.281250 0.114583 0.947917 F F F Li
0.281250 0.197917 0.031250 F F F Li
0.281250 0.197917 0.114583 F F F Li
0.281250 0.197917 0.197917 F F F Li
0.281250 0.197917 0.281250 F F F Li
0.281250 0.197917 0.364583 F F F Li
0.281250 0.197917 0.447917 F F F Li
0.281250 0.197917 0.531250 F F F Li
0.281250 0.197917 0.614583 F F F Li
0.281250 0.197917 0.697917 F F F Li
0.281250 0.197917 0.781250 F F F Li
0.281250 0.197917 0.864583 F F F Li
0.281250 0.197917 0.947917 F F F Li
0.281250 0.281250 0.031250 F F F Li
0.281250 0.281250 0.114583 F F F Li
0.281250 0.281250 0.197917 F F F Li
0.281250 0.281250 0.281250 F F F Li
0.281250 0.281250 0.364583 F F F Li
0.281250 0.281250 0.447917 F F F Li
0.281250 0.281250 0.531250 F F F Li
0.281250 0.281250 0.614583 F F F Li
0.281250 0.281250 0.697917 F F F Li
0.281250 0.281250 0.781250 F F F Li
0.281250 0.281250 0.864583 F F F Li
0.281250 0.281250 0.947917 F F F Li
0.281250 0.364583 0.031250 F F F Li
0.281250 0.364583 0.114583 F F F Li
0.281250 0.364583 0.197917 F F F Li
0.281250 0.364583 0.281250 F F F Li
0.281250 0.364583 0.364583 F F F Li
0.281250 0.364583 0.447917 F F F Li
0.281250 0.364583 0.531250 F F F Li
0.281250 0.364583 0.614583 F F F Li
0.281250 0.364583 0.697917 F F F Li
0.281250 0.364583 0.781250 F F F Li
0.281250 0.364583 0.864583 F F F Li
0.281250 0.364583 0.947917 F F F Li
0.281250 0.447917 0.031250 F F F Li
0.281250 0.447917 0.114583 F F F Li
0.281250 0.447917 0.197917 F F F Li
0.281250 0.447917 0.281250 F F F Li
0.281250 0.447917 0.364583 F F F Li
0.281250 0.447917 0.447917 F F F Li
0.281250 0.447917 0.531250 F F F Li
0.281250 0.447917 0.614583 F F F Li
0.281250 0.447917 0.697917 F F F Li
0.281250 0.447917 0.781250 F F F Li
0.281250 0.447917 0.864583 F F F Li
0.281250 0.447917 0.947917 F F F Li
0.281250 0.531250 0.031250 F F F Li
0.281250 0.531250 0.114583 F F F Li
0.281250 0.531250 0.197917 F F F Li
0.281250 0.531250 0.281250 F F F Li
0.281250 0.531250 0.364583 F F F Li
0.281250 0.531250 0.447917 F F F Li
0.281250 0.531250 0.531250 F F F Li
0.281250 0.531250 0.614583 F F F Li
0.281250 0.531250 0.697917 F F F Li
0.281250 0.531250 0.781250 F F F Li
0.281250 0.531250 0.864583 F F F Li
0.281250 0.531250 0.947917 F F F Li
0.281250 0.614583 0.031250 F F F Li
0.281250 0.614583 0.114583 F F F Li
0.281250 0.614583 0.197917 F F F Li
0.281250 0.614583 0.281250 F F F Li
0.281250 0.614583 0.364583 F F F Li
0.281250 0.614583 0.447917 F F F Li
0.281250 0.614583 0.531250 F F F Li
0.281250 0.614583 0.614583 F F F Li
0.281250 0.614583 0.697917 F F F Li
0.281250 0.614583 0.781250 F F F Li
0.281250 0.614583 0.864583 F F F Li
0.281250 0.614583 0.947917 F F F Li
0.281250 0.697917 0.031250 F F F Li
0.281250 0.697917 0.114583 F F F Li
0.281250 0.697917 0.197917 F F F Li
0.281250 0.697917 0.281250 F F F Li
0.281250 0.697917 0.364583 F F F Li
0.281250 0.697917 0.447917 F F F Li
0.281250 0.697917 0.531250 F F F Li
0.281250 0.697917 0.614583 F F F Li
0.281250 0.697917 0.697917 F F F Li
0.281250 0.697917 0.781250 F F F Li
0.281250 0.697917 0.864583 F F F Li
0.281250 0.697917 0.947917 F F F Li
0.281250 0.781250 0.031250 F F F Li
0.281250 0.781250 0.114583 F F F Li
0.281250 0.781250 0.197917 F F F Li
0.281250 0.781250 0.281250 F F F Li
0.281250 0.781250 0.364583 F F F Li
0.281250 0.781250 0.447917 F F F Li
0.281250 0.781250 0.531250 F F F Li
0.281250 0.781250 0.614583 F F F Li
0.281250 0.781250 0.697917 F F F Li
0.281250 0.781250 0.781250 F F F Li
0.281250 0.781250 0.864583 F F F Li
0.281250 0.781250 0.947917 F F F Li
0.281250 0.864583 0.031250 F F F Li
0.281250 0.864583 0.114583 F F F Li
0.281250 0.864583 0.197917 F F F Li
0.281250 0.864583 0.281250 F F F Li
0.281250 0.864583 0.364583 F F F Li
0.281250 0.864583 0.447917 F F F Li
0.281250 0.864583 0.531250 F F F Li
0.281250 0.864583 0.614583 F F F Li
0.281250 0.864583 0.697917 F F F Li
0.281250 0.864583 0.781250 F F F Li
0.281250 0.864583 0.864583 F F F Li
0.281250 0.864583 0.947917 F F F Li
0.281250 0.947917 0.031250 F F F Li
0.281250 0.947917 0.114583 F F F Li
0.281250 0.947917 0.197917 F F F Li
0.281250 0.947917 0.281250 F F F Li
0.281250 0.947917 0.364583 F F F Li
0.281250 0.947917 0.447917 F F F Li
0.281250 0.947917 0.531250 F F F Li
0.281250 0.947917 0.614583 F F F Li
0.281250 0.947917 0.697917 F F F Li
0.281250 0.947917 0.781250 F F F Li
0.281250 0.947917 0.864583 F F F Li
0.281250 0.947917 0.947917 F F F Li
0.364583 0.031250 0.031250 F F F Li
0.364583 0.031250 0.114583 F F F Li
0.364583 0.031250 0.197917 F F F Li
0.364583 0.031250 0.281250 F F F Li
0.364583 0.031250 0.364583 F F F Li
0.364583 0.031250 0.447917 F F F Li
0.364583 0.031250 0.531250 F F F Li
0.364583 0.031250 0.614583 F F F Li
0.364583 0.031250 0.697917 F F F Li
0.364583 0.031250 0.781250 F F F Li
0.364583 0.031250 0.864583 F F F Li
0.364583 0.031250 0.947917 F F F Li
0.364583 0.114583 0.031250 F F F Li
0.364583 0.114583 0.114583 F F F Li
0.364583 0.114583 0.197917 F F F Li
0.364583 0.114583 0.281250 F F F Li
0.364583 0.114583 0.364583 F F F Li
0.364583 0.114583 0.447917 F F F Li
0.364583 0.114583 0.531250 F F F Li
0.364583 0.114583 0.614583 F F F Li
0.364583 0.114583 0.697917 F F F Li
0.364583 0.114583 0.781250 F F F Li
0.364583 0.114583 0.864583 F F F Li
0.364583 0.114583 0.947917 F F F Li
0.364583 0.197917 0.031250 F F F Li
0.364583 0.197917 0.114583 F F F Li
0.364583 0.197917 0.197917 F F F Li
0.364583 0.197917 0.281250 F F F Li
0.364583 0.197917 0.364583 F F F Li
0.364583 0.197917 0.447917 F F F Li
0.364583 0.197917 0.531250 F F F Li
0.364583 0.197917 0.614583 F F F Li
0.364583 0.197917 0.697917 F F F Li
0.364583 0.197917 0.781250 F F F Li
0.364583 0.197917 0.864583 F F F Li
0.364583 0.197917 0.947917 F F F Li
0.364583 0.281250 0.031250 F F F Li
0.364583 0.281250 0.114583 F F F Li
0.364583 0.281250 0.197917 F F F Li
0.364583 0.281250 0.281250 F F F Li
0.364583 0.281250 0.364583 F F F Li
0.364583 0.281250 0.447917 F F F Li
0.364583 0.281250 0.531250 F F F Li
0.364583 0.281250 0.614583 F F F Li
0.364583 0.281250 0.697917 F F F Li
0.364583 0.281250 0.781250 F F F Li
0.364583 0.281250 0.864583 F F F Li
0.364583 0.281250 0.947917 F F F Li
0.364583 0.364583 0.031250 F F F Li
0.364583 0.364583 0.114583 F F F Li
0.364583 0.364583 0.197917 F F F Li
0.364583 0.364583 0.281250 F F F Li
0.364583 0.364583 0.364583 F F F Li
0.364583 0.364583 0.447917 F F F Li
0.364583 0.364583 0.531250 F F F Li
0.364583 0.364583 0.614583 F F F Li
0.364583 0.364583 0.697917 F F F Li
0.364583 0.364583 0.781250 F F F Li
0.364583 0.364583 0.864583 F F F Li
0.364583 0.364583 0.947917 F F F Li
0.364583 0.447917 0.031250 F F F Li
0.364583 0.447917 0.114583 F F F Li
0.364583 0.447917 0.197917 F F F Li
0.364583 0.447917 0.281250 F F F Li
0.364583 0.447917 0.364583 F F F Li
0.364583 0.447917 0.447917 F F F Li
0.364583 0.447917 0.531250 F F F Li
0.364583 0.447917 0.614583 F F F Li
0.364583 0.447917 0.697917 F F F Li
0.364583 0.447917 0.781250 F F F Li
0.364583 0.447917 0.864583 F F F Li
0.364583 0.447917 0.947917 F F F Li
0.364583 0.531250 0.031250 F F F Li
0.364583 0.531250 0.114583 F F F Li
0.364583 0.531250 0.197917 F F F Li
0.364583 0.531250 0.281250 F F F Li
0.364583 0.531250 0.364583 F F F Li
0.364583 0.531250 0.447917 F F F Li
0.364583 0.531250 0.531250 F F F Li
0.364583 0.531250 0.614583 F F F Li
0.364583 0.531250 0.697917 F F F Li
0.364583 0.531250 0.781250 F F F Li
0.364583 0.531250 0.864583 F F F Li
0.364583 0.531250 0.947917 F F F Li
0.364583 0.614583 0.031250 F F F Li
0.364583 0.614583 0.114583 F F F Li
0.364583 0.614583 0.197917 F F F Li
0.364583 0.614583 0.281250 F F F Li
0.364583 0.614583 0.364583 F F F Li
0.364583 0.614583 0.447917 F F F Li
0.364583 0.614583 0.531250 F F F Li
0.364583 0.614583 0.614583 F F F Li
0.364583 0.614583 0.697917 F F F Li
0.364583 0.614583 0.781250 F F F Li
0.364583 0.614583 0.864583 F F F Li
0.364583 0.614583 0.947917 F F F Li
0.364583 0.697917 0.031250 F F F Li
0.364583 0.697917 0.114583 F F F Li
0.364583 0.697917 0.197917 F F F Li
0.364583 0.697917 0.281250 F F F Li
0.364583 0.697917 0.364583 F F F Li
0.364583 0.697917 0.447917 F F F Li
0.364583 0.697917 0.531250 F F F Li
0.364583 0.697917 0.614583 F F F Li
0.364583 0.697917 0.697917 F F F Li
0.364583 0.697917 0.781250 F F F Li
0.364583 0.697917 0.864583 F F F Li
0.364583 0.697917 0.947917 F F F Li
0.364583 0.781250 0.031250 F F F Li
0.364583 0.781250 0.114583 F F F Li
0.364583 0.781250 0.197917 F F F Li
0.364583 0.781250 0.281250 F F F Li
0.364583 0.781250 0.364583 F F F Li
0.364583 0.781250 0.447917 F F F Li
0.364583 0.781250 0.531250 F F F Li
0.364583 0.781250 0.614583 F F F Li
0.364583 0.781250 0.697917 F F F Li
0.364583 0.781250 0.781250 F F F Li
0.364583 0.781250 0.864583 F F F Li
0.364583 0.781250 0.947917 F F F Li
0.364583 0.864583 0.031250 F F F Li
0.364583 0.864583 0.114583 F F F Li
0.364583 0.864583 0.197917 F F F Li
0.364583 0.864583 0.281250 F F F Li
0.364583 0.864583 0.364583 F F F Li
0.364583 0.864583 0.447917 F F F Li
0.364583 0.864583 0.531250 F F F Li
0.364583 0.864583 0.614583 F F F Li
0.364583 0.864583 0.697917 F F F Li
0.364583 0.864583 0.781250 F F F Li
0.364583 0.864583 0.864583 F F F Li
0.364583 0.864583 0.947917 F F F Li
0.364583 0.947917 0.031250 F F F Li
0.364583 0.947917 0.114583 F F F Li
0.364583 0.947917 0.197917 F F F Li
0.364583 0.947917 0.281250 F F F Li
0.364583 0.947917 0.364583 F F F Li
0.364583 0.947917 0.447917 F F F Li
0.364583 0.947917 0.531250 F F F Li
0.364583 0.947917 0.614583 F F F Li
0.364583 0.947917 0.697917 F F F Li
0.364583 0.947917 0.781250 F F F Li
0.364583 0.947917 0.864583 F F F Li
0.364583 0.947917 0.947917 F F F Li
0.447917 0.031250 0.031250 F F F Li
0.447917 0.031250 0.114583 F F F Li
0.447917 0.031250 0.197917 F F F Li
0.447917 0.031250 0.281250 F F F Li
0.447917 0.031250 0.364583 F F F Li
0.447917 0.031250 0.447917 F F F Li
0.447917 0.031250 0.531250 F F F Li
0.447917 0.031250 0.614583 F F F Li
0.447917 0.031250 0.697917 F F F Li
0.447917 0.031250 0.781250 F F F Li
0.447917 0.031250 0.864583 F F F Li
0.447917 0.031250 0.947917 F F F Li
0.447917 0.114583 0.031250 F F F Li
0.447917 0.114583 0.114583 F F F Li
0.447917 0.114583 0.197917 F F F Li
0.447917 0.114583 0.281250 F F F Li
0.447917 0.114583 0.364583 F F F Li
0.447917 0.114583 0.447917 F F F Li
0.447917 0.114583 0.531250 F F F Li
0.447917 0.114583 0.614583 F F F Li
0.447917 0.114583 0.697917 F F F Li
0.447917 0.114583 0.781250 F F F Li
0.447917 0.114583 0.864583 F F F Li
0.447917 0.114583 0.947917 F F F Li
0.447917 0.197917 0.031250 F F F Li
0.447917 0.197917 0.114583 F F F Li
0.447917 0.197917 0.197917 F F F Li
0.447917 0.197917 0.281250 F F F Li
0.447917 0.197917 0.364583 F F F Li
0.447917 0.197917 0.447917 F F F Li
0.447917 0.197917 0.531250 F F F Li
0.447917 0.197917 0.614583 F F F Li
0.447917 0.197917 0.697917 F F F Li
0.447917 0.197917 0.781250 F F F Li
0.447917 0.197917 0.864583 F F F Li
0.447917 0.197917 0.947917 F F F Li
0.447917 0.281250 0.031250 F F F Li
0.447917 0.281250 0.114583 F F F Li
0.447917 0.281250 0.197917 F F F Li
0.447917 0.281250 0.281250 F F F Li
0.447917 0.281250 0.364583 F F F Li
0.447917 0.281250 0.447917 F F F Li
0.447917 0.281250 0.531250 F F F Li
0.447917 0.281250 0.614583 F F F Li
0.447917 0.281250 0.697917 F F F Li
0.447917 0.281250 0.781250 F F F Li
0.447917 0.281250 0.864583 F F F Li
0.447917 0.281250 0.947917 F F F Li
0.447917 0.364583 0.031250 F F F Li
0.447917 0.364583 0.114583 F F F Li
0.447917 0.364583 0.197917 F F F Li
0.447917 0.364583 0.281250 F F F Li
0.447917 0.364583 0.364583 F F F Li
0.447917 0.364583 0.447917 F F F Li
0.447917 0.364583 0.531250 F F F Li
0.447917 0.364583 0.614583 F F F Li
0.447917 0.364583 0.697917 F F F Li
0.447917 0.364583 0.781250 F F F Li
0.447917 0.364583 0.864583 F F F Li
0.447917 0.364583 0.947917 F F F Li
0.447917 0.447917 0.031250 F F F Li
0.447917 0.447917 0.114583 F F F Li
0.447917 0.447917 0.197917 F F F Li
0.447917 0.447917 0.281250 F F F Li
0.447917 0.447917 0.364583 F F F Li
0.447917 0.447917 0.447917 F F F Li
0.447917 0.447917 0.531250 F F F Li
0.447917 0.447917 0.614583 F F F Li
0.447917 0.447917 0.697917 F F F Li
0.447917 0.447917 0.781250 F F F Li
0.447917 0.447917 0.864583 F F F Li
0.447917 0.447917 0.947917 F F F Li
0.447917 0.531250 0.031250 F F F Li
0.447917 0.531250 0.114583 F F F Li
0.447917 0.531250 0.197917 F F F Li
0.447917 0.531250 0.281250 F F F Li
0.447917 0.531250 0.364583 F F F Li
0.447917 0.531250 0.447917 F F F Li
0.447917 0.531250 0.531250 F F F Li
0.447917 0.531250 0.614583 F F F Li
0.447917 0.531250 0.697917 F F F Li
0.447917 0.531250 0.781250 F F F Li
0.447917 0.531250 0.864583 F F F Li
0.447917 0.531250 0.947917 F F F Li
0.447917 0.614583 0.031250 F F F Li
0.447917 0.614583 0.114583 F F F Li
0.447917 0.614583 0.197917 F F F Li
0.447917 0.614583 0.281250 F F F Li
0.447917 0.614583 0.364583 F F F Li
0.447917 0.614583 0.447917 F F F Li
0.447917 0.614583 0.531250 F F F Li
0.447917 0.614583 0.614583 F F F Li
0.447917 0.614583 0.697917 F F F Li
0.447917 0.614583 0.781250 F F F Li
0.447917 0.614583 0.864583 F F F Li
0.447917 0.614583 0.947917 F F F Li
0.447917 0.697917 0.031250 F F F Li
0.447917 0.697917 0.114583 F F F Li
0.447917 0.697917 0.197917 F F F Li
0.447917 0.697917 0.281250 F F F Li
0.447917 0.697917 0.364583 F F F Li
0.447917 0.697917 0.447917 F F F Li
0.447917 0.697917 0.531250 F F F Li
0.447917 0.697917 0.614583 F F F Li
0.447917 0.697917 0.697917 F F F Li
0.447917 0.697917 0.781250 F F F Li
0.447917 0.697917 0.864583 F F F Li
0.447917 0.697917 0.947917 F F F Li
0.447917 0.781250 0.031250 F F F Li