Li512
1.0
32.320000 0.000000 0.000000
0.000000 32.320000 0.000000
0.000000 0.000000 32.320000
Li
512
Selective dynamics
direct
0.093750 0.093750 0.093750 F F F Li
0.093750 0.093750 0.343750 F F F Li
0.093750 0.093750 0.593750 F F F Li
0.093750 0.093750 0.843750 F F F Li
0.093750 0.343750 0.093750 F F F Li
0.093750 0.343750 0.343750 F F F Li
0.093750 0.343750 0.593750 F F F Li
0.093750 0.343750 0.843750 F F F Li
0.093750 0.593750 0.093750 F F F Li
0.093750 0.593750 0.343750 F F F Li
0.093750 0.593750 0.593750 F F F Li
0.093750 0.593750 0.843750 F F F Li
0.093750 0.843750 0.093750 F F F Li
0.093750 0.843750 0.343750 F F F Li
0.093750 0.843750 0.593750 F F F Li
0.093750 0.843750 0.843750 F F F Li
0.343750 0.093750 0.093750 F F F Li
0.343750 0.093750 0.343750 F F F Li
0.343750 0.093750 0.593750 F F F Li
0.343750 0.093750 0.843750 F F F Li
0.343750 0.343750 0.093750 F F F Li
0.343750 0.343750 0.343750 F F F Li
0.343750 0.343750 0.593750 F F F Li
0.343750 0.343750 0.843750 F F F Li
0.343750 0.593750 0.093750 F F F Li
0.343750 0.593750 0.343750 F F F Li
0.343750 0.593750 0.593750 F F F Li
0.343750 0.593750 0.843750 F F F Li
0.343750 0.843750 0.093750 F F F Li
0.343750 0.843750 0.343750 F F F Li
0.343750 0.843750 0.593750 F F F Li
0.343750 0.843750 0.843750 F F F Li
0.593750 0.093750 0.093750 F F F Li
0.593750 0.093750 0.343750 F F F Li
0.593750 0.093750 0.593750 F F F Li
0.593750 0.093750 0.843750 F F F Li
0.593750 0.343750 0.093750 F F F Li
0.593750 0.343750 0.343750 F F F Li
0.593750 0.343750 0.593750 F F F Li
0.593750 0.343750 0.843750 F F F Li
0.593750 0.593750 0.093750 F F F Li
0.593750 0.593750 0.343750 F F F Li
0.593750 0.593750 0.593750 F F F Li
0.593750 0.593750 0.843750 F F F Li
0.593750 0.843750 0.093750 F F F Li
0.593750 0.843750 0.343750 F F F Li
0.593750 0.843750 0.593750 F F F Li
0.593750 0.843750 0.843750 F F F Li
0.843750 0.093750 0.093750 F F F Li
0.843750 0.093750 0.343750 F F F Li
0.843750 0.093750 0.593750 F F F Li
0.843750 0.093750 0.843750 F F F Li
0.843750 0.343750 0.093750 F F F Li
0.843750 0.343750 0.343750 F F F Li
0.843750 0.343750 0.593750 F F F Li
0.843750 0.343750 0.843750 F F F Li
0.843750 0.593750 0.093750 F F F Li
0.843750 0.593750 0.343750 F F F Li
0.843750 0.593750 0.593750 F F F Li
0.843750 0.593750 0.843750 F F F Li
0.843750 0.843750 0.093750 F F F Li
0.843750 0.843750 0.343750 F F F Li
0.843750 0.843750 0.593750 F F F Li
0.843750 0.843750 0.843750 F F F Li
0.218750 0.218750 0.093750 F F F Li
0.218750 0.218750 0.343750 F F F Li
0.218750 0.218750 0.593750 F F F Li
0.218750 0.218750 0.843750 F F F Li
0.218750 0.468750 0.093750 F F F Li
0.218750 0.468750 0.343750 F F F Li
0.218750 0.468750 0.593750 F F F Li
0.218750 0.468750 0.843750 F F F Li
0.218750 0.718750 0.093750 F F F Li
0.218750 0.718750 0.343750 F F F Li
0.218750 0.718750 0.593750 F F F Li
0.218750 0.718750 0.843750 F F F Li
0.218750 0.968750 0.093750 F F F Li
0.218750 0.968750 0.343750 F F F Li
0.218750 0.968750 0.593750 F F F Li
0.218750 0.968750 0.843750 F F F Li
0.468750 0.218750 0.093750 F F F Li
0.468750 0.218750 0.343750 F F F Li
0.468750 0.218750 0.593750 F F F Li
0.468750 0.218750 0.843750 F F F Li
0.468750 0.468750 0.093750 F F F Li
0.468750 0.468750 0.343750 F F F Li
0.468750 0.468750 0.593750 F F F Li
0.468750 0.468750 0.843750 F F F Li
0.468750 0.718750 0.093750 F F F Li
0.468750 0.718750 0.343750 F F F Li
0.468750 0.718750 0.593750 F F F Li
0.468750 0.718750 0.843750 F F F Li
0.468750 0.968750 0.093750 F F F Li
0.468750 0.968750 0.343750 F F F Li
0.468750 0.968750 0.593750 F F F Li
0.468750 0.968750 0.843750 F F F Li
0.718750 0.218750 0.093750 F F F Li
0.718750 0.218750 0.343750 F F F Li
0.718750 0.218750 0.593750 F F F Li
0.718750 0.218750 0.843750 F F F Li
0.718750 0.468750 0.093750 F F F Li
0.718750 0.468750 0.343750 F F F Li
0.718750 0.468750 0.593750 F F F Li
0.718750 0.468750 0.843750 F F F Li
0.718750 0.718750 0.093750 F F F Li
0.718750 0.718750 0.343750 F F F Li
0.718750 0.718750 0.593750 F F F Li
0.718750 0.718750 0.843750 F F F Li
0.718750 0.968750 0.093750 F F F Li
0.718750 0.968750 0.343750 F F F Li
0.718750 0.968750 0.593750 F F F Li
0.718750 0.968750 0.843750 F F F Li
0.968750 0.218750 0.093750 F F F Li
0.968750 0.218750 0.343750 F F F Li
0.968750 0.218750 0.593750 F F F Li
0.968750 0.218750 0.843750 F F F Li
0.968750 0.468750 0.093750 F F F Li
0.968750 0.468750 0.343750 F F F Li
0.968750 0.468750 0.593750 F F F Li
0.968750 0.468750 0.843750 F F F Li
0.968750 0.718750 0.093750 F F F Li
0.968750 0.718750 0.343750 F F F Li
0.968750 0.718750 0.593750 F F F Li
0.968750 0.718750 0.843750 F F F Li
0.968750 0.968750 0.093750 F F F Li
0.968750 0.968750 0.343750 F F F Li
0.968750 0.968750 0.593750 F F F Li
0.968750 0.968750 0.843750 F F F Li
0.156250 0.156250 0.156250 F F F Li
0.156250 0.156250 0.406250 F F F Li
0.156250 0.156250 0.656250 F F F Li
0.156250 0.156250 0.906250 F F F Li
0.156250 0.406250 0.156250 F F F Li
0.156250 0.406250 0.406250 F F F Li
0.156250 0.406250 0.656250 F F F Li
0.156250 0.406250 0.906250 F F F Li
0.156250 0.656250 0.156250 F F F Li
0.156250 0.656250 0.406250 F F F Li
0.156250 0.656250 0.656250 F F F Li
0.156250 0.656250 0.906250 F F F Li
0.156250 0.906250 0.156250 F F F Li
0.156250 0.906250 0.406250 F F F Li
0.156250 0.906250 0.656250 F F F Li
0.156250 0.906250 0.906250 F F F Li
0.406250 0.156250 0.156250 F F F Li
0.406250 0.156250 0.406250 F F F Li
0.406250 0.156250 0.656250 F F F Li
0.406250 0.156250 0.906250 F F F Li
0.406250 0.406250 0.156250 F F F Li
0.406250 0.406250 0.406250 F F F Li
0.406250 0.406250 0.656250 F F F Li
0.406250 0.406250 0.906250 F F F Li
0.406250 0.656250 0.156250 F F F Li
0.406250 0.656250 0.406250 F F F Li
0.406250 0.656250 0.656250 F F F Li
0.406250 0.656250 0.906250 F F F Li
0.406250 0.906250 0.156250 F F F Li
0.406250 0.906250 0.406250 F F F Li
0.406250 0.906250 0.656250 F F F Li
0.406250 0.906250 0.906250 F F F Li
0.656250 0.156250 0.156250 F F F Li
0.656250 0.156250 0.406250 F F F Li
0.656250 0.156250 0.656250 F F F Li
0.656250 0.156250 0.906250 F F F Li
0.656250 0.406250 0.156250 F F F Li
0.656250 0.406250 0.406250 F F F Li
0.656250 0.406250 0.656250 F F F Li
0.656250 0.406250 0.906250 F F F Li
0.656250 0.656250 0.156250 F F F Li
0.656250 0.656250 0.406250 F F F Li
0.656250 0.656250 0.656250 F F F Li
0.656250 0.656250 0.906250 F F F Li
0.656250 0.906250 0.156250 F F F Li
0.656250 0.906250 0.406250 F F F Li
0.656250 0.906250 0.656250 F F F Li
0.656250 0.906250 0.906250 F F F Li
0.906250 0.156250 0.156250 F F F Li
0.906250 0.156250 0.406250 F F F Li
0.906250 0.156250 0.656250 F F F Li
0.906250 0.156250 0.906250 F F F Li
0.906250 0.406250 0.156250 F F F Li
0.906250 0.406250 0.406250 F F F Li
0.906250 0.406250 0.656250 F F F Li
0.906250 0.406250 0.906250 F F F Li
0.906250 0.656250 0.156250 F F F Li
0.906250 0.656250 0.406250 F F F Li
0.906250 0.656250 0.656250 F F F Li
0.906250 0.656250 0.906250 F F F Li
0.906250 0.906250 0.156250 F F F Li
0.906250 0.906250 0.406250 F F F Li
0.906250 0.906250 0.656250 F F F Li
0.906250 0.906250 0.906250 F F F Li
0.031250 0.031250 0.156250 F F F Li
0.031250 0.031250 0.406250 F F F Li
0.031250 0.031250 0.656250 F F F Li
0.031250 0.031250 0.906250 F F F Li
0.031250 0.281250 0.156250 F F F Li
0.031250 0.281250 0.406250 F F F Li
0.031250 0.281250 0.656250 F F F Li
0.031250 0.281250 0.906250 F F F Li
0.031250 0.531250 0.156250 F F F Li
0.031250 0.531250 0.406250 F F F Li
0.031250 0.531250 0.656250 F F F Li
0.031250 0.531250 0.906250 F F F Li
0.031250 0.781250 0.156250 F F F Li
0.031250 0.781250 0.406250 F F F Li
0.031250 0.781250 0.656250 F F F Li
0.031250 0.781250 0.906250 F F F Li
0.281250 0.031250 0.156250 F F F Li
0.281250 0.031250 0.406250 F F F Li
0.281250 0.031250 0.656250 F F F Li
0.281250 0.031250 0.906250 F F F Li
0.281250 0.281250 0.156250 F F F Li
0.281250 0.281250 0.406250 F F F Li
0.281250 0.281250 0.656250 F F F Li
0.281250 0.281250 0.906250 F F F Li
0.281250 0.531250 0.156250 F F F Li
0.281250 0.531250 0.406250 F F F Li
0.281250 0.531250 0.656250 F F F Li
0.281250 0.531250 0.906250 F F F Li
0.281250 0.781250 0.156250 F F F Li
0.281250 0.781250 0.406250 F F F Li
0.281250 0.781250 0.656250 F F F Li
0.281250 0.781250 0.906250 F F F Li
0.531250 0.031250 0.156250 F F F Li
0.531250 0.031250 0.406250 F F F Li
0.531250 0.031250 0.656250 F F F Li
0.531250 0.031250 0.906250 F F F Li
0.531250 0.281250 0.156250 F F F Li
0.531250 0.281250 0.406250 F F F Li
0.531250 0.281250 0.656250 F F F Li
0.531250 0.281250 0.906250 F F F Li
0.531250 0.531250 0.156250 F F F Li
0.531250 0.531250 0.406250 F F F Li
0.531250 0.531250 0.656250 F F F Li
0.531250 0.531250 0.906250 F F F Li
0.531250 0.781250 0.156250 F F F Li
0.531250 0.781250 0.406250 F F F Li
0.531250 0.781250 0.656250 F F F Li
0.531250 0.781250 0.906250 F F F Li
0.781250 0.031250 0.156250 F F F Li
0.781250 0.031250 0.406250 F F F Li
0.781250 0.031250 0.656250 F F F Li
0.781250 0.031250 0.906250 F F F Li
0.781250 0.281250 0.156250 F F F Li
0.781250 0.281250 0.406250 F F F Li
0.781250 0.281250 0.656250 F F F Li
0.781250 0.281250 0.906250 F F F Li
0.781250 0.531250 0.156250 F F F Li
0.781250 0.531250 0.406250 F F F Li
0.781250 0.531250 0.656250 F F F Li
0.781250 0.531250 0.906250 F F F Li
0.781250 0.781250 0.156250 F F F Li
0.781250 0.781250 0.406250 F F F Li
0.781250 0.781250 0.656250 F F F Li
0.781250 0.781250 0.906250 F F F Li
0.218750 0.093750 0.218750 F F F Li
0.218750 0.093750 0.468750 F F F Li
0.218750 0.093750 0.718750 F F F Li
0.218750 0.093750 0.968750 F F F Li
0.218750 0.343750 0.218750 F F F Li
0.218750 0.343750 0.468750 F F F Li
0.218750 0.343750 0.718750 F F F Li
0.218750 0.343750 0.968750 F F F Li
0.218750 0.593750 0.218750 F F F Li
0.218750 0.593750 0.468750 F F F Li
0.218750 0.593750 0.718750 F F F Li
0.218750 0.593750 0.968750 F F F Li
0.218750 0.843750 0.218750 F F F Li
0.218750 0.843750 0.468750 F F F Li
0.218750 0.843750 0.718750 F F F Li
0.218750 0.843750 0.968750 F F F Li
0.468750 0.093750 0.218750 F F F Li
0.468750 0.093750 0.468750 F F F Li
0.468750 0.093750 0.718750 F F F Li
0.468750 0.093750 0.968750 F F F Li
0.468750 0.343750 0.218750 F F F Li
0.468750 0.343750 0.468750 F F F Li
0.468750 0.343750 0.718750 F F F Li
0.468750 0.343750 0.968750 F F F Li
0.468750 0.593750 0.218750 F F F Li
0.468750 0.593750 0.468750 F F F Li
0.468750 0.593750 0.718750 F F F Li
0.468750 0.593750 0.968750 F F F Li
0.468750 0.843750 0.218750 F F F Li
0.468750 0.843750 0.468750 F F F Li
0.468750 0.843750 0.718750 F F F Li
0.468750 0.843750 0.968750 F F F Li
0.718750 0.093750 0.218750 F F F Li
0.718750 0.093750 0.468750 F F F Li
0.718750 0.093750 0.718750 F F F Li
0.718750 0.093750 0.968750 F F F Li
0.718750 0.343750 0.218750 F F F Li
0.718750 0.343750 0.468750 F F F Li
0.718750 0.343750 0.718750 F F F Li
0.718750 0.343750 0.968750 F F F Li
0.718750 0.593750 0.218750 F F F Li
0.718750 0.593750 0.468750 F F F Li
0.718750 0.593750 0.718750 F F F Li
0.718750 0.593750 0.968750 F F F Li
0.718750 0.843750 0.218750 F F F Li
0.718750 0.843750 0.468750 F F F Li
0.718750 0.843750 0.718750 F F F Li
0.718750 0.843750 0.968750 F F F Li
0.968750 0.093750 0.218750 F F F Li
0.968750 0.093750 0.468750 F F F Li
0.968750 0.093750 0.718750 F F F Li
0.968750 0.093750 0.968750 F F F Li
0.968750 0.343750 0.218750 F F F Li
0.968750 0.343750 0.468750 F F F Li
0.968750 0.343750 0.718750 F F F Li
0.968750 0.343750 0.968750 F F F Li
0.968750 0.593750 0.218750 F F F Li
0.968750 0.593750 0.468750 F F F Li
0.968750 0.593750 0.718750 F F F Li
0.968750 0.593750 0.968750 F F F Li
0.968750 0.843750 0.218750 F F F Li
0.968750 0.843750 0.468750 F F F Li
0.968750 0.843750 0.718750 F F F Li
0.968750 0.843750 0.968750 F F F Li
0.093750 0.218750 0.218750 F F F Li
0.093750 0.218750 0.468750 F F F Li
0.093750 0.218750 0.718750 F F F Li
0.093750 0.218750 0.968750 F F F Li
0.093750 0.468750 0.218750 F F F Li
0.093750 0.468750 0.468750 F F F Li
0.093750 0.468750 0.718750 F F F Li
0.093750 0.468750 0.968750 F F F Li
0.093750 0.718750 0.218750 F F F Li
0.093750 0.718750 0.468750 F F F Li
0.093750 0.718750 0.718750 F F F Li
0.093750 0.718750 0.968750 F F F Li
0.093750 0.968750 0.218750 F F F Li
0.093750 0.968750 0.468750 F F F Li
0.093750 0.968750 0.718750 F F F Li
0.093750 0.968750 0.968750 F F F Li
0.343750 0.218750 0.218750 F F F Li
0.343750 0.218750 0.468750 F F F Li
0.343750 0.218750 0.718750 F F F Li
0.343750 0.218750 0.968750 F F F Li
0.343750 0.468750 0.218750 F F F Li
0.343750 0.468750 0.468750 F F F Li
0.343750 0.468750 0.718750 F F F Li
0.343750 0.468750 0.968750 F F F Li
0.343750 0.718750 0.218750 F F F Li
0.343750 0.718750 0.468750 F F F Li
0.343750 0.718750 0.718750 F F F Li
0.343750 0.718750 0.968750 F F F Li
0.343750 0.968750 0.218750 F F F Li
0.343750 0.968750 0.468750 F F F Li
0.343750 0.968750 0.718750 F F F Li
0.343750 0.968750 0.968750 F F F Li
0.593750 0.218750 0.218750 F F F Li
0.593750 0.218750 0.468750 F F F Li
0.593750 0.218750 0.718750 F F F Li
0.593750 0.218750 0.968750 F F F Li
0.593750 0.468750 0.218750 F F F Li
0.593750 0.468750 0.468750 F F F Li
0.593750 0.468750 0.718750 F F F Li
0.593750 0.468750 0.968750 F F F Li
0.593750 0.718750 0.218750 F F F Li
0.593750 0.718750 0.468750 F F F Li
0.593750 0.718750 0.718750 F F F Li
0.593750 0.718750 0.968750 F F F Li
0.593750 0.968750 0.218750 F F F Li
0.593750 0.968750 0.468750 F F F Li
0.593750 0.968750 0.718750 F F F Li
0.593750 0.968750 0.968750 F F F Li
0.843750 0.218750 0.218750 F F F Li
0.843750 0.218750 0.468750 F F F Li
0.843750 0.218750 0.718750 F F F Li
0.843750 0.218750 0.968750 F F F Li
0.843750 0.468750 0.218750 F F F Li
0.843750 0.468750 0.468750 F F F Li
0.843750 0.468750 0.718750 F F F Li
0.843750 0.468750 0.968750 F F F Li
0.843750 0.718750 0.218750 F F F Li
0.843750 0.718750 0.468750 F F F Li
0.843750 0.718750 0.718750 F F F Li
0.843750 0.718750 0.968750 F F F Li
0.843750 0.968750 0.218750 F F F Li
0.843750 0.968750 0.468750 F F F Li
0.843750 0.968750 0.718750 F F F Li
0.843750 0.968750 0.968750 F F F Li
0.031250 0.156250 0.031250 F F F Li
0.031250 0.156250 0.281250 F F F Li
0.031250 0.156250 0.531250 F F F Li
0.031250 0.156250 0.781250 F F F Li
0.031250 0.406250 0.031250 F F F Li
0.031250 0.406250 0.281250 F F F Li
0.031250 0.406250 0.531250 F F F Li
0.031250 0.406250 0.781250 F F F Li
0.031250 0.656250 0.031250 F F F Li
0.031250 0.656250 0.281250 F F F Li
0.031250 0.656250 0.531250 F F F Li
0.031250 0.656250 0.781250 F F F Li
0.031250 0.906250 0.031250 F F F Li
0.031250 0.906250 0.281250 F F F Li
0.031250 0.906250 0.531250 F F F Li
0.031250 0.906250 0.781250 F F F Li
0.281250 0.156250 0.031250 F F F Li
0.281250 0.156250 0.281250 F F F Li
0.281250 0.156250 0.531250 F F F Li
0.281250 0.156250 0.781250 F F F Li
0.281250 0.406250 0.031250 F F F Li
0.281250 0.406250 0.281250 F F F Li
0.281250 0.406250 0.531250 F F F Li
0.281250 0.406250 0.781250 F F F Li
0.281250 0.656250 0.031250 F F F Li
0.281250 0.656250 0.281250 F F F Li
0.281250 0.656250 0.531250 F F F Li
0.281250 0.656250 0.781250 F F F Li
0.281250 0.906250 0.031250 F F F Li
0.281250 0.906250 0.281250 F F F Li
0.281250 0.906250 0.531250 F F F Li
0.281250 0.906250 0.781250 F F F Li
0.531250 0.156250 0.031250 F F F Li
0.531250 0.156250 0.281250 F F F Li
0.531250 0.156250 0.531250 F F F Li
0.531250 0.156250 0.781250 F F F Li
0.531250 0.406250 0.031250 F F F Li
0.531250 0.406250 0.281250 F F F Li
0.531250 0.406250 0.531250 F F F Li
0.531250 0.406250 0.781250 F F F Li
0.531250 0.656250 0.031250 F F F Li
0.531250 0.656250 0.281250 F F F Li
0.531250 0.656250 0.531250 F F F Li
0.531250 0.656250 0.781250 F F F Li
0.531250 0.906250 0.031250 F F F Li
0.531250 0.906250 0.281250 F F F Li
0.531250 0.906250 0.531250 F F F Li
0.531250 0.906250 0.781250 F F F Li
0.781250 0.156250 0.031250 F F F Li
0.781250 0.156250 0.281250 F F F Li
0.781250 0.156250 0.531250 F F F Li
0.781250 0.156250 0.781250 F F F Li
0.781250 0.406250 0.031250 F F F Li
0.781250 0.406250 0.281250 F F F Li
0.781250 0.406250 0.531250 F F F Li
0.781250 0.406250 0.781250 F F F Li
0.781250 0.656250 0.031250 F F F Li
0.781250 0.656250 0.281250 F F F Li
0.781250 0.656250 0.531250 F F F Li
0.781250 0.656250 0.781250 F F F Li
0.781250 0.906250 0.031250 F F F Li
0.781250 0.906250 0.281250 F F F Li
0.781250 0.906250 0.531250 F F F Li
0.781250 0.906250 0.781250 F F F Li
0.156250 0.031250 0.031250 F F F Li
0.156250 0.031250 0.281250 F F F Li
0.156250 0.031250 0.531250 F F F Li
0.156250 0.031250 0.781250 F F F Li
0.156250 0.281250 0.031250 F F F Li
0.156250 0.281250 0.281250 F F F Li
0.156250 0.281250 0.531250 F F F Li
0.156250 0.281250 0.781250 F F F Li
0.156250 0.531250 0.031250 F F F Li
0.156250 0.531250 0.281250 F F F Li
0.156250 0.531250 0.531250 F F F Li
0.156250 0.531250 0.781250 F F F Li
0.156250 0.781250 0.031250 F F F Li
0.156250 0.781250 0.281250 F F F Li
0.156250 0.781250 0.531250 F F F Li
0.156250 0.781250 0.781250 F F F Li
0.406250 0.031250 0.031250 F F F Li
0.406250 0.031250 0.281250 F F F Li
0.406250 0.031250 0.531250 F F F Li
0.406250 0.031250 0.781250 F F F Li
0.406250 0.281250 0.031250 F F F Li
0.406250 0.281250 0.281250 F F F Li
0.406250 0.281250 0.531250 F F F Li
0.406250 0.281250 0.781250 F F F Li
0.406250 0.531250 0.031250 F F F Li
0.406250 0.531250 0.281250 F F F Li
0.406250 0.531250 0.531250 F F F Li
0.406250 0.531250 0.781250 F F F Li
0.406250 0.781250 0.031250 F F F Li
0.406250 0.781250 0.281250 F F F Li
0.406250 0.781250 0.531250 F F F Li
0.406250 0.781250 0.781250 F F F Li
0.656250 0.031250 0.031250 F F F Li
0.656250 0.031250 0.281250 F F F Li
0.656250 0.031250 0.531250 F F F Li
0.656250 0.031250 0.781250 F F F Li
0.656250 0.281250 0.031250 F F F Li
0.656250 0.281250 0.281250 F F F Li
0.656250 0.281250 0.531250 F F F Li
0.656250 0.281250 0.781250 F F F Li
0.656250 0.531250 0.031250 F F F Li
0.656250 0.531250 0.281250 F F F Li
0.656250 0.531250 0.531250 F F F Li
0.656250 0.531250 0.781250 F F F Li
0.656250 0.781250 0.031250 F F F Li
0.656250 0.781250 0.281250 F F F Li
0.656250 0.781250 0.531250 F F F Li
0.656250 0.781250 0.781250 F F F Li
0.906250 0.031250 0.031250 F F F Li
0.906250 0.031250 0.281250 F F F Li
0.906250 0.031250 0.531250 F F F Li
0.906250 0.031250 0.781250 F F F Li
0.906250 0.281250 0.031250 F F F Li
0.906250 0.281250 0.281250 F F F Li
0.906250 0.281250 0.531250 F F F Li
0.906250 0.281250 0.781250 F F F Li
0.906250 0.531250 0.031250 F F F Li
0.906250 0.531250 0.281250 F F F Li
0.906250 0.531250 0.531250 F F F Li
0.906250 0.531250 0.781250 F F F Li
0.906250 0.781250 0.031250 F F F Li
0.906250 0.781250 0.281250 F F F Li
0.906250 0.781250 0.531250 F F F Li
0.906250 0.781250 0.781250 F F F Li
